14
Iteration -1, Energy=-157.2936815052, |grad|=0.093420
C     -1.595040     0.328784    -0.013845
C     -0.599782    -0.582040    -0.741230
C      0.728890    -0.737337     0.085637
C      1.503947     0.550323     0.410539
H     -1.060316     0.841893     0.761134
H     -2.413070    -0.234730     0.457361
H     -2.094154     1.043283    -0.665704
H     -0.455410    -0.240210    -1.781130
H     -1.030545    -1.561095    -0.827370
H      0.399309    -1.149900     1.026468
H      1.361714    -1.454310    -0.419501
H      2.542629     0.456658     0.772461
H      0.989255     1.099626     1.207374
H      1.561828     1.169818    -0.495075
14
Iteration 1, Energy=-157.2956507002, |grad|=0.076512
C     -1.608260     0.318516    -0.017304
C     -0.583912    -0.567953    -0.737009
C      0.716226    -0.728455     0.075247
C      1.501775     0.560930     0.402748
H     -1.063198     0.856233     0.771063
H     -2.406616    -0.235353     0.457858
H     -2.090263     1.047868    -0.667783
H     -0.447275    -0.239672    -1.771945
H     -1.033960    -1.576811    -0.830237
H      0.402019    -1.163216     1.036471
H      1.367687    -1.460841    -0.420955
H      2.533860     0.442455     0.768101
H      0.990106     1.103618     1.200255
H      1.561069     1.173445    -0.489394
14
Iteration 2, Energy=-157.2968947061, |grad|=0.053048
C     -1.604805     0.322960    -0.014892
C     -0.587031    -0.573460    -0.735738
C      0.716757    -0.729017     0.076921
C      1.499032     0.561631     0.401218
H     -1.070041     0.860683     0.771272
H     -2.406921    -0.239229     0.459813
H     -2.088567     1.049608    -0.669085
H     -0.441365    -0.237594    -1.768724
H     -1.030758    -1.576237    -0.831507
H      0.405130    -1.167817     1.036334
H      1.367686    -1.460633    -0.420341
H      2.528861     0.433894     0.765221
H      0.990148     1.107204     1.196609
H      1.561129     1.178769    -0.489985
14
Iteration 3, Energy=-157.3000821140, |grad|=0.042241
C     -1.601429     0.333619    -0.006333
C     -0.593705    -0.588032    -0.726085
C      0.715529    -0.734686     0.083799
C      1.483278     0.565026     0.388683
H     -1.103646     0.890697     0.778612
H     -2.401433    -0.254266     0.467097
H     -2.077851     1.058131    -0.675454
H     -0.407877    -0.227150    -1.747735
H     -1.017635    -1.581183    -0.839280
H      0.424116    -1.193954     1.036464
H      1.368258    -1.458549    -0.416846
H      2.501204     0.384673     0.748968
H      0.989119     1.129068     1.177456
H      1.561328     1.207367    -0.492229
14
Iteration 4, Energy=-157.3010761584, |grad|=0.029663
C     -1.603357     0.334542    -0.005033
C     -0.590840    -0.584676    -0.715697
C      0.711993    -0.740509     0.088176
C      1.473389     0.561367     0.380932
H     -1.125259     0.910010     0.783775
H     -2.397322    -0.258477     0.469842
H     -2.071579     1.057163    -0.677822
H     -0.385123    -0.220370    -1.730542
H     -1.013290    -1.586270    -0.845793
H      0.440318    -1.208344     1.036469
H      1.368140    -1.453347    -0.416104
H      2.484406     0.353358     0.737744
H      0.986588     1.144930     1.166840
H      1.561193     1.221386    -0.495671
14
Iteration 5, Energy=-157.3013749289, |grad|=0.038612
C     -1.610756     0.329789     0.001183
C     -0.585982    -0.588434    -0.706925
C      0.706354    -0.738186     0.087932
C      1.464445     0.566507     0.374151
H     -1.145134     0.926604     0.787560
H     -2.392701    -0.255532     0.468553
H     -2.070176     1.050602    -0.682896
H     -0.361532    -0.211221    -1.710700
H     -1.010111    -1.579074    -0.852158
H      0.457769    -1.222621     1.044640
H      1.369515    -1.447722    -0.421205
H      2.472290     0.326078     0.727755
H      0.985591     1.155217     1.154378
H      1.559683     1.218754    -0.495152
14
Iteration 6, Energy=-157.3017483358, |grad|=0.018304
C     -1.608909     0.330038    -0.002306
C     -0.585263    -0.581264    -0.705508
C      0.707597    -0.739805     0.090645
C      1.467084     0.562858     0.376564
H     -1.144847     0.925204     0.787061
H     -2.396728    -0.254769     0.469094
H     -2.072393     1.045522    -0.683254
H     -0.360768    -0.209732    -1.708710
H     -1.013027    -1.578894    -0.853228
H      0.460338    -1.220376     1.045041
H      1.369100    -1.444924    -0.423607
H      2.472823     0.328526     0.727588
H      0.984788     1.154962     1.155566
H      1.559462     1.213419    -0.497828
14
Iteration 7, Energy=-157.3020460242, |grad|=0.019195
C     -1.609395     0.329307    -0.003625
C     -0.584215    -0.575606    -0.701808
C      0.709595    -0.740952     0.094710
C      1.468562     0.558694     0.379221
H     -1.147041     0.924860     0.786057
H     -2.401786    -0.252014     0.468699
H     -2.077352     1.036289    -0.686317
H     -0.355558    -0.204297    -1.703531
H     -1.016629    -1.573545    -0.855706
H      0.467184    -1.218996     1.048146
H      1.368465    -1.439237    -0.429168
H      2.474677     0.329411     0.727105
H      0.983860     1.155109     1.155624
H      1.558889     1.201739    -0.502291
14
Iteration 8, Energy=-157.3024412377, |grad|=0.022278
C     -1.613146     0.330089    -0.002476
C     -0.581337    -0.569540    -0.693342
C      0.711222    -0.743162     0.101735
C      1.469735     0.553467     0.381734
H     -1.156109     0.929700     0.785007
H     -2.411276    -0.249799     0.469280
H     -2.087859     1.020053    -0.696117
H     -0.339986    -0.189465    -1.689603
H     -1.021830    -1.562639    -0.862149
H      0.483663    -1.222433     1.057239
H      1.367977    -1.428477    -0.440760
H      2.477337     0.325671     0.726038
H      0.982967     1.157484     1.152651
H      1.557899     1.179815    -0.512120
14
Iteration 9, Energy=-157.3026088390, |grad|=0.042598
C     -1.629285     0.326844    -0.001108
C     -0.588229    -0.563423    -0.685321
C      0.719076    -0.751445     0.116755
C      1.476283     0.547370     0.382810
H     -1.171326     0.946414     0.784875
H     -2.419183    -0.250811     0.471669
H     -2.105690     1.001957    -0.714011
H     -0.318278    -0.162252    -1.665548
H     -1.024774    -1.547666    -0.873266
H      0.506563    -1.235181     1.068257
H      1.366179    -1.416923    -0.454512
H      2.482602     0.325697     0.729890
H      0.986594     1.160196     1.145690
H      1.558725     1.149984    -0.529064
14
Iteration 10, Energy=-157.3029509950, |grad|=0.013889
C     -1.630816     0.332254     0.001514
C     -0.583263    -0.563261    -0.678373
C      0.715211    -0.750264     0.116047
C      1.475435     0.546466     0.381403
H     -1.180305     0.951110     0.781713
H     -2.422798    -0.253803     0.474148
H     -2.110482     0.996861    -0.718588
H     -0.310734    -0.153261    -1.657789
H     -1.025414    -1.545330    -0.877918
H      0.513861    -1.242538     1.073555
H      1.366642    -1.415585    -0.458244
H      2.484365     0.322923     0.730823
H      0.988154     1.162340     1.141830
H      1.559401     1.142850    -0.533002
14
Iteration 1, Energy=-157.3029556859, |grad|=0.013715
C     -1.630816     0.332207     0.001364
C     -0.583409    -0.563746    -0.678121
C      0.715219    -0.750266     0.116048
C      1.475506     0.546466     0.381458
H     -1.181304     0.951964     0.781854
H     -2.422797    -0.253795     0.473970
H     -2.110482     0.996914    -0.718588
H     -0.309320    -0.153261    -1.656766
H     -1.025242    -1.545342    -0.877917
H      0.514369    -1.242701     1.073615
H      1.366657    -1.415598    -0.458220
H      2.484569     0.322822     0.730851
H      0.988133     1.162587     1.141549
H      1.559427     1.142852    -0.533003
14
Iteration 2, Energy=-157.3029590543, |grad|=0.013435
C     -1.630575     0.332275     0.001347
C     -0.583335    -0.563847    -0.678096
C      0.715123    -0.750123     0.115770
C      1.475468     0.546546     0.381449
H     -1.181545     0.952150     0.781847
H     -2.422739    -0.253803     0.473949
H     -2.110279     0.997114    -0.718370
H     -0.309238    -0.153576    -1.656829
H     -1.025199    -1.545555    -0.877815
H      0.514183    -1.242901     1.073497
H      1.366679    -1.415785    -0.458036
H      2.484482     0.322580     0.730800
H      0.988120     1.162713     1.141409
H      1.559433     1.143168    -0.532773
14
Iteration -1, Energy=-157.3029590543, |grad|=0.013435
C     -1.630575     0.332275     0.001347
C     -0.583335    -0.563847    -0.678096
C      0.715123    -0.750123     0.115770
C      1.475468     0.546546     0.381449
H     -1.181545     0.952150     0.781847
H     -2.422739    -0.253803     0.473949
H     -2.110279     0.997114    -0.718370
H     -0.309238    -0.153576    -1.656829
H     -1.025199    -1.545555    -0.877815
H      0.514183    -1.242901     1.073497
H      1.366679    -1.415785    -0.458036
H      2.484482     0.322580     0.730800
H      0.988120     1.162713     1.141409
H      1.559433     1.143168    -0.532773
14
Iteration 1, Energy=-157.3030428365, |grad|=0.014603
C     -1.631197     0.332620     0.003842
C     -0.580657    -0.565608    -0.678095
C      0.713110    -0.750506     0.114764
C      1.475680     0.547833     0.379968
H     -1.185058     0.953633     0.778240
H     -2.420779    -0.254826     0.474920
H     -2.111836     0.998166    -0.717917
H     -0.311899    -0.152205    -1.655275
H     -1.023059    -1.544408    -0.879037
H      0.513170    -1.245696     1.071831
H      1.365694    -1.418959    -0.455977
H      2.486062     0.324888     0.732704
H      0.990164     1.162752     1.139574
H      1.561181     1.143270    -0.531392
14
Iteration 2, Energy=-157.3031279982, |grad|=0.011895
C     -1.631769     0.331830     0.002814
C     -0.580352    -0.565155    -0.677361
C      0.713366    -0.751143     0.114406
C      1.476900     0.547027     0.379575
H     -1.187897     0.956585     0.776112
H     -2.419228    -0.256390     0.476571
H     -2.113271     0.998445    -0.716767
H     -0.314446    -0.150446    -1.654149
H     -1.021031    -1.544118    -0.880563
H      0.511868    -1.248475     1.069927
H      1.364448    -1.422242    -0.453638
H      2.486851     0.327533     0.734364
H      0.991893     1.163388     1.138006
H      1.563246     1.144116    -0.531146
14
Iteration 3, Energy=-157.3032552506, |grad|=0.020488
C     -1.634752     0.330596     0.004093
C     -0.583112    -0.560090    -0.679242
C      0.717669    -0.752973     0.118368
C      1.483383     0.543920     0.378294
H     -1.199573     0.970350     0.767113
H     -2.412995    -0.264365     0.484833
H     -2.122767     0.995860    -0.714763
H     -0.323223    -0.140057    -1.651965
H     -1.012771    -1.544480    -0.887576
H      0.505062    -1.259162     1.062928
H      1.360457    -1.438910    -0.446637
H      2.492208     0.337494     0.741923
H      0.997198     1.167040     1.131868
H      1.573793     1.145733    -0.531087
14
Iteration 4, Energy=-157.3033200542, |grad|=0.015955
C     -1.638644     0.330292     0.001319
C     -0.580747    -0.559140    -0.676113
C      0.717230    -0.754710     0.113098
C      1.486979     0.544229     0.380052
H     -1.202048     0.977216     0.766137
H     -2.410959    -0.267596     0.489078
H     -2.127799     0.991629    -0.713676
H     -0.324977    -0.134133    -1.653531
H     -1.010286    -1.543699    -0.890461
H      0.501804    -1.262512     1.063574
H      1.358252    -1.443703    -0.443743
H      2.494854     0.340345     0.744805
H      0.998515     1.168264     1.129190
H      1.578402     1.144474    -0.531579
14
Iteration 5, Energy=-157.3033672872, |grad|=0.008427
C     -1.637408     0.330488     0.002505
C     -0.580958    -0.559111    -0.677623
C      0.716931    -0.754263     0.114506
C      1.486034     0.544126     0.379908
H     -1.200212     0.975051     0.767408
H     -2.412099    -0.266489     0.488238
H     -2.127557     0.991057    -0.714875
H     -0.323128    -0.135389    -1.653694
H     -1.011688    -1.543283    -0.889413
H      0.502834    -1.259805     1.064350
H      1.359100    -1.441163    -0.445581
H      2.494409     0.338264     0.743772
H      0.997093     1.167926     1.130388
H      1.577226     1.143547    -0.531741
14
Iteration 6, Energy=-157.3034254755, |grad|=0.006833
C     -1.637133     0.330430     0.003951
C     -0.580557    -0.557703    -0.679338
C      0.716875    -0.754210     0.115444
C      1.486690     0.543286     0.380226
H     -1.200141     0.976323     0.767302
H     -2.411866    -0.267171     0.490348
H     -2.131781     0.986796    -0.716340
H     -0.321694    -0.133003    -1.654018
H     -1.011772    -1.541430    -0.890185
H      0.502040    -1.257497     1.064846
H      1.358839    -1.441076    -0.446523
H      2.495734     0.337012     0.744641
H      0.996037     1.168247     1.130015
H      1.579307     1.140950    -0.532220
14
Iteration 7, Energy=-157.3035707530, |grad|=0.015001
C     -1.638615     0.329619     0.007486
C     -0.578683    -0.551622    -0.683030
C      0.717151    -0.754401     0.116796
C      1.491364     0.540179     0.381454
H     -1.203451     0.985009     0.763774
H     -2.407906    -0.271678     0.500451
H     -2.149317     0.970159    -0.719639
H     -0.318984    -0.121175    -1.654458
H     -1.009750    -1.534420    -0.895575
H      0.496999    -1.252768     1.065398
H      1.356247    -1.444825    -0.446921
H      2.500929     0.335283     0.750047
H      0.994652     1.169791     1.126009
H      1.589940     1.131803    -0.533643
14
Iteration 8, Energy=-157.3037897556, |grad|=0.023235
C     -1.642885     0.327801     0.011617
C     -0.575573    -0.540162    -0.686902
C      0.717895    -0.754082     0.117863
C      1.500457     0.534658     0.383326
H     -1.212307     1.002551     0.753722
H     -2.397325    -0.281265     0.520627
H     -2.181744     0.939367    -0.723123
H     -0.315259    -0.098182    -1.653399
H     -1.004846    -1.521000    -0.907667
H      0.486793    -1.246361     1.065670
H      1.350495    -1.452971    -0.445326
H      2.509008     0.332779     0.761512
H      0.994735     1.172084     1.116438
H      1.611134     1.115738    -0.536210
14
Iteration 9, Energy=-157.3042216997, |grad|=0.034637
C     -1.655195     0.321262     0.017411
C     -0.568977    -0.514806    -0.692744
C      0.716720    -0.753312     0.120174
C      1.520914     0.523357     0.384566
H     -1.233489     1.040658     0.726348
H     -2.367645    -0.302776     0.565624
H     -2.249201     0.874194    -0.726620
H     -0.306250    -0.049090    -1.645978
H     -0.995232    -1.492124    -0.936993
H      0.465999    -1.232893     1.066453
H      1.337774    -1.466765    -0.439859
H      2.519859     0.323134     0.787452
H      0.997813     1.176958     1.095120
H      1.657488     1.083159    -0.542805
14
Iteration 10, Energy=-157.3045748201, |grad|=0.043386
C     -1.664157     0.318415     0.021093
C     -0.567157    -0.493801    -0.696488
C      0.717232    -0.749022     0.121596
C      1.534684     0.512423     0.386707
H     -1.257108     1.076490     0.694240
H     -2.335971    -0.326155     0.612513
H     -2.314201     0.808306    -0.726824
H     -0.295170     0.000854    -1.637540
H     -0.985618    -1.461364    -0.968074
H      0.445933    -1.219500     1.069271
H      1.324682    -1.477950    -0.433837
H      2.529120     0.309154     0.814309
H      1.003958     1.181170     1.071950
H      1.704352     1.051938    -0.550766
14
Iteration 1, Energy=-157.3045774743, |grad|=0.043288
C     -1.664113     0.318453     0.020946
C     -0.567310    -0.493916    -0.696394
C      0.717173    -0.749020     0.121550
C      1.534506     0.512437     0.386706
H     -1.257354     1.076412     0.694244
H     -2.336065    -0.326133     0.612433
H     -2.314083     0.808351    -0.726810
H     -0.295138     0.000836    -1.637540
H     -0.985723    -1.461367    -0.968064
H      0.446007    -1.219860     1.069162
H      1.324706    -1.477466    -0.433955
H      2.528981     0.309710     0.814255
H      1.003758     1.181145     1.071946
H      1.704233     1.051943    -0.550770
14
Iteration 2, Energy=-157.3045787115, |grad|=0.043282
C     -1.664245     0.318401     0.021082
C     -0.567169    -0.493799    -0.696500
C      0.717229    -0.749016     0.121708
C      1.534680     0.512431     0.386721
H     -1.257164     1.076439     0.694254
H     -2.335945    -0.326098     0.612417
H     -2.314026     0.808463    -0.726842
H     -0.295019     0.000807    -1.637368
H     -0.985655    -1.461427    -0.968080
H      0.446011    -1.219490     1.069267
H      1.324716    -1.477909    -0.433826
H      2.529071     0.309180     0.814248
H      1.003955     1.181182     1.071980
H      1.704237     1.051907    -0.550976
14
Iteration -1, Energy=-157.3045787115, |grad|=0.043282
C     -1.664245     0.318401     0.021082
C     -0.567169    -0.493799    -0.696500
C      0.717229    -0.749016     0.121708
C      1.534680     0.512431     0.386721
H     -1.257164     1.076439     0.694254
H     -2.335945    -0.326098     0.612417
H     -2.314026     0.808463    -0.726842
H     -0.295019     0.000807    -1.637368
H     -0.985655    -1.461427    -0.968080
H      0.446011    -1.219490     1.069267
H      1.324716    -1.477909    -0.433826
H      2.529071     0.309180     0.814248
H      1.003955     1.181182     1.071980
H      1.704237     1.051907    -0.550976
14
Iteration 1, Energy=-157.3049184147, |grad|=0.023449
C     -1.668222     0.316633     0.018011
C     -0.565947    -0.492832    -0.693372
C      0.715439    -0.749502     0.118873
C      1.536318     0.513761     0.386438
H     -1.257798     1.077083     0.692799
H     -2.332319    -0.325073     0.611940
H     -2.311303     0.808135    -0.723378
H     -0.294948     0.000742    -1.636279
H     -0.986327    -1.462625    -0.969659
H      0.446359    -1.220528     1.070171
H      1.324270    -1.476641    -0.432425
H      2.525589     0.308083     0.814122
H      1.005429     1.181380     1.071284
H      1.704135     1.052456    -0.550442
14
Iteration 2, Energy=-157.3051756269, |grad|=0.019738
C     -1.670277     0.314834     0.015803
C     -0.566479    -0.493140    -0.690617
C      0.712813    -0.748784     0.117730
C      1.536467     0.515020     0.384777
H     -1.260571     1.076954     0.687804
H     -2.325889    -0.324467     0.612057
H     -2.307812     0.808842    -0.718727
H     -0.294836     0.000522    -1.633034
H     -0.986783    -1.463405    -0.972718
H      0.447600    -1.222218     1.070619
H      1.323694    -1.474634    -0.430340
H      2.519701     0.304971     0.814658
H      1.008701     1.182245     1.069963
H      1.704346     1.054330    -0.549891
14
Iteration 3, Energy=-157.3054284256, |grad|=0.018448
C     -1.668985     0.311744     0.013749
C     -0.568586    -0.494738    -0.688794
C      0.709622    -0.747390     0.118222
C      1.533647     0.515772     0.381967
H     -1.264586     1.077803     0.679781
H     -2.316961    -0.325731     0.614416
H     -2.304860     0.811433    -0.714103
H     -0.294486     0.000460    -1.627319
H     -0.987310    -1.464163    -0.977894
H      0.449978    -1.224599     1.071030
H      1.322631    -1.471266    -0.427322
H      2.511476     0.298542     0.816274
H      1.013848     1.184933     1.068260
H      1.705249     1.058271    -0.550183
14
Iteration 4, Energy=-157.3056555940, |grad|=0.019209
C     -1.668475     0.310271     0.012992
C     -0.568551    -0.502183    -0.690503
C      0.702994    -0.746392     0.121098
C      1.529515     0.517064     0.378073
H     -1.265510     1.083463     0.669247
H     -2.304924    -0.332503     0.623275
H     -2.305075     0.814477    -0.711480
H     -0.292164     0.003016    -1.620873
H     -0.988574    -1.465365    -0.987320
H      0.454087    -1.227232     1.072854
H      1.321731    -1.466351    -0.424488
H      2.498803     0.284661     0.818913
H      1.019350     1.194046     1.067661
H      1.707468     1.064099    -0.551365
14
Iteration 5, Energy=-157.3057038587, |grad|=0.023919
C     -1.664859     0.305503     0.013469
C     -0.574461    -0.500419    -0.691291
C      0.702969    -0.746366     0.121527
C      1.520134     0.519984     0.378390
H     -1.263424     1.089534     0.659798
H     -2.293838    -0.338021     0.632696
H     -2.309070     0.814886    -0.711308
H     -0.288177     0.005739    -1.616815
H     -0.990685    -1.469455    -0.997750
H      0.456743    -1.229176     1.076646
H      1.320715    -1.461503    -0.421727
H      2.489487     0.269936     0.821672
H      1.024819     1.202478     1.065446
H      1.710323     1.067949    -0.552667
14
Iteration 6, Energy=-157.3058104829, |grad|=0.008597
C     -1.666249     0.308308     0.014252
C     -0.572941    -0.501594    -0.692555
C      0.702193    -0.745796     0.122403
C      1.523433     0.518688     0.378829
H     -1.261959     1.088368     0.662375
H     -2.297081    -0.336939     0.631687
H     -2.309955     0.812506    -0.712091
H     -0.288431     0.005871    -1.619106
H     -0.990044    -1.467692    -0.995442
H      0.455841    -1.227841     1.075731
H      1.321849    -1.463399    -0.423510
H      2.492046     0.273067     0.820747
H      1.022116     1.201753     1.066596
H      1.709858     1.065769    -0.551832
14
Iteration 7, Energy=-157.3058510889, |grad|=0.007814
C     -1.666781     0.309273     0.014836
C     -0.572941    -0.501624    -0.693726
C      0.701459    -0.745605     0.122581
C      1.523674     0.518582     0.379691
H     -1.259706     1.088885     0.661847
H     -2.296592    -0.336836     0.633488
H     -2.312286     0.809440    -0.712310
H     -0.287539     0.006783    -1.620147
H     -0.990043    -1.466874    -0.996387
H      0.455500    -1.226935     1.075936
H      1.322394    -1.463419    -0.424139
H      2.492005     0.271872     0.820783
H      1.021183     1.203233     1.066760
H      1.710348     1.064295    -0.551131
14
Iteration 8, Energy=-157.3059533512, |grad|=0.011417
C     -1.667320     0.310016     0.015808
C     -0.573589    -0.500631    -0.696858
C      0.698575    -0.744657     0.122637
C      1.522557     0.518235     0.382377
H     -1.252538     1.091568     0.656499
H     -2.290923    -0.336359     0.641687
H     -2.321124     0.798441    -0.711434
H     -0.284216     0.010283    -1.621876
H     -0.990542    -1.464290    -1.002332
H      0.454464    -1.224388     1.076845
H      1.323399    -1.461528    -0.424809
H      2.489160     0.265070     0.822056
H      1.019864     1.209285     1.066362
H      1.712909     1.060027    -0.548880
14
Iteration 9, Energy=-157.3060877701, |grad|=0.014264
C     -1.666679     0.309538     0.015794
C     -0.573857    -0.499132    -0.701084
C      0.694947    -0.743507     0.122470
C      1.519968     0.518294     0.385983
H     -1.243733     1.095930     0.644538
H     -2.278834    -0.334700     0.656094
H     -2.335620     0.780651    -0.707731
H     -0.280283     0.016250    -1.622936
H     -0.991164    -1.459012    -1.012647
H      0.451129    -1.221113     1.077052
H      1.323195    -1.456869    -0.424135
H      2.483933     0.255065     0.826209
H      1.019720     1.216049     1.064393
H      1.717954     1.053626    -0.545916
14
Iteration 10, Energy=-157.3061973073, |grad|=0.022440
C     -1.664840     0.305014     0.016276
C     -0.574442    -0.494026    -0.705566
C      0.689539    -0.739191     0.123007
C      1.519156     0.514523     0.388703
H     -1.234392     1.104070     0.626793
H     -2.259893    -0.332519     0.675878
H     -2.355275     0.758710    -0.702876
H     -0.276053     0.024701    -1.623478
H     -0.992331    -1.454283    -1.027238
H      0.444932    -1.218483     1.077198
H      1.323608    -1.452407    -0.423381
H      2.475888     0.243823     0.833418
H      1.019165     1.224404     1.063053
H      1.725614     1.046734    -0.543703
14
Iteration 1, Energy=-157.3061949822, |grad|=0.022956
C     -1.664830     0.305014     0.016303
C     -0.574442    -0.493530    -0.705601
C      0.689585    -0.739160     0.123007
C      1.519157     0.514219     0.388673
H     -1.234191     1.104266     0.626679
H     -2.259749    -0.332502     0.676243
H     -2.355635     0.758392    -0.702876
H     -0.275993     0.024882    -1.623480
H     -0.992336    -1.454262    -1.027489
H      0.444892    -1.218472     1.077184
H      1.323631    -1.452406    -0.423338
H      2.475893     0.243749     0.833489
H      1.019157     1.224489     1.062974
H      1.725827     1.046659    -0.543686
14
Iteration 2, Energy=-157.3061926800, |grad|=0.022791
C     -1.664905     0.305111     0.016293
C     -0.574412    -0.493563    -0.705532
C      0.689658    -0.739230     0.122987
C      1.519175     0.514225     0.388645
H     -1.234366     1.103965     0.627102
H     -2.260224    -0.332496     0.675748
H     -2.355185     0.758772    -0.702944
H     -0.276096     0.024641    -1.623518
H     -0.992272    -1.454257    -1.027080
H      0.444996    -1.218464     1.077168
H      1.323633    -1.452467    -0.423434
H      2.476024     0.244028     0.833273
H      1.019139     1.224299     1.063052
H      1.725585     1.046698    -0.543702
14
Iteration -1, Energy=-157.3061973073, |grad|=0.022440
C     -1.664840     0.305014     0.016276
C     -0.574442    -0.494026    -0.705566
C      0.689539    -0.739191     0.123007
C      1.519156     0.514523     0.388703
H     -1.234392     1.104070     0.626793
H     -2.259893    -0.332519     0.675878
H     -2.355275     0.758710    -0.702876
H     -0.276053     0.024701    -1.623478
H     -0.992331    -1.454283    -1.027238
H      0.444932    -1.218483     1.077198
H      1.323608    -1.452407    -0.423381
H      2.475888     0.243823     0.833418
H      1.019165     1.224404     1.063053
H      1.725614     1.046734    -0.543703
14
Iteration 1, Energy=-157.3062950211, |grad|=0.011262
C     -1.664983     0.305666     0.014935
C     -0.574901    -0.494236    -0.705044
C      0.691725    -0.741869     0.121236
C      1.517027     0.517570     0.389446
H     -1.236147     1.104378     0.625354
H     -2.258625    -0.332662     0.676624
H     -2.354704     0.758389    -0.701415
H     -0.276789     0.025228    -1.623128
H     -0.991718    -1.453741    -1.027094
H      0.443682    -1.218924     1.076805
H      1.321912    -1.451452    -0.421947
H      2.477132     0.244492     0.834948
H      1.020802     1.221489     1.061432
H      1.726260     1.046744    -0.544067
14
Iteration 2, Energy=-157.3063334942, |grad|=0.010099
C     -1.664830     0.305360     0.014744
C     -0.574650    -0.494289    -0.704970
C      0.691810    -0.741937     0.121310
C      1.517648     0.517356     0.388933
H     -1.237745     1.104998     0.624006
H     -2.257196    -0.332560     0.677164
H     -2.354734     0.758358    -0.700655
H     -0.277571     0.025668    -1.622697
H     -0.991343    -1.453471    -1.027071
H      0.442645    -1.219372     1.076066
H      1.321525    -1.451797    -0.421587
H      2.477179     0.245721     0.835999
H      1.021120     1.220089     1.061207
H      1.726817     1.046947    -0.544364
14
Iteration 3, Energy=-157.3064753303, |grad|=0.019445
C     -1.662636     0.301335     0.012155
C     -0.572615    -0.490553    -0.703205
C      0.693920    -0.741514     0.118260
C      1.522346     0.512500     0.385238
H     -1.250911     1.116718     0.612487
H     -2.243691    -0.334431     0.686347
H     -2.358952     0.756278    -0.696265
H     -0.284403     0.031801    -1.620822
H     -0.987932    -1.453320    -1.027690
H      0.431250    -1.224230     1.071043
H      1.318527    -1.458297    -0.418967
H      2.480443     0.257664     0.847103
H      1.021663     1.208635     1.060112
H      1.733668     1.048485    -0.547711
14
Iteration 4, Energy=-157.3065314309, |grad|=0.018111
C     -1.664771     0.304567     0.015800
C     -0.571406    -0.492366    -0.707719
C      0.693266    -0.744797     0.120901
C      1.527257     0.513094     0.384427
H     -1.256751     1.122659     0.605748
H     -2.236009    -0.335621     0.691531
H     -2.362362     0.751878    -0.695020
H     -0.287278     0.035893    -1.620888
H     -0.984821    -1.450493    -1.027244
H      0.426646    -1.224496     1.065936
H      1.317491    -1.463216    -0.419115
H      2.481687     0.262784     0.851713
H      1.020399     1.203756     1.059067
H      1.737327     1.047427    -0.547054
14
Iteration 5, Energy=-157.3065888316, |grad|=0.008238
C     -1.664753     0.304111     0.015240
C     -0.571912    -0.491072    -0.706514
C      0.693665    -0.743978     0.119532
C      1.525864     0.512721     0.385626
H     -1.253936     1.122018     0.608033
H     -2.238101    -0.335431     0.690747
H     -2.362583     0.751387    -0.696010
H     -0.285827     0.035265    -1.621884
H     -0.985764    -1.451275    -1.027635
H      0.428227    -1.223964     1.067716
H      1.317974    -1.462619    -0.419518
H      2.481538     0.260658     0.849929
H      1.019764     1.206245     1.059315
H      1.736518     1.047003    -0.546492
14
Iteration 6, Energy=-157.3066352544, |grad|=0.006230
C     -1.664931     0.304448     0.015508
C     -0.572020    -0.489090    -0.706492
C      0.694399    -0.744009     0.118190
C      1.525773     0.511882     0.386811
H     -1.253536     1.124959     0.607130
H     -2.236354    -0.335713     0.693135
H     -2.365343     0.747732    -0.696439
H     -0.285510     0.036793    -1.623219
H     -0.985527    -1.450884    -1.028238
H      0.427542    -1.223645     1.067649
H      1.317806    -1.464559    -0.419934
H      2.482419     0.260549     0.850492
H      1.018196     1.206792     1.058885
H      1.737761     1.045816    -0.545394
14
Iteration 7, Energy=-157.3067320228, |grad|=0.011239
C     -1.665384     0.305817     0.016783
C     -0.571254    -0.483726    -0.707827
C      0.696153    -0.745026     0.114899
C      1.527300     0.509213     0.389762
H     -1.255677     1.136012     0.600631
H     -2.227000    -0.336219     0.702646
H     -2.375183     0.734421    -0.696201
H     -0.286101     0.042937    -1.626403
H     -0.983737    -1.447751    -1.030120
H      0.423440    -1.223083     1.065256
H      1.316273    -1.471544    -0.420744
H      2.485140     0.262253     0.854693
H      1.013436     1.205716     1.056789
H      1.743272     1.042050    -0.542081
14
Iteration 8, Energy=-157.3068475962, |grad|=0.014204
C     -1.664560     0.307235     0.017939
C     -0.569484    -0.477252    -0.710175
C      0.697552    -0.746098     0.112079
C      1.529308     0.505631     0.392563
H     -1.260260     1.150136     0.589020
H     -2.211918    -0.335151     0.716328
H     -2.389291     0.714118    -0.694064
H     -0.286983     0.051422    -1.629238
H     -0.981731    -1.441159    -1.033429
H      0.418198    -1.222324     1.061180
H      1.313317    -1.479150    -0.421526
H      2.487501     0.263249     0.861732
H      1.007637     1.203353     1.053287
H      1.751389     1.037060    -0.537612
14
Iteration 9, Energy=-157.3069539659, |grad|=0.037303
C     -1.667746     0.308867     0.020345
C     -0.563100    -0.463045    -0.716183
C      0.697489    -0.748739     0.103047
C      1.539429     0.497518     0.402986
H     -1.272498     1.186340     0.553500
H     -2.166258    -0.328801     0.753188
H     -2.424962     0.657144    -0.684541
H     -0.286165     0.074300    -1.633588
H     -0.979633    -1.422557    -1.045917
H      0.405845    -1.221860     1.054256
H      1.304995    -1.491424    -0.423273
H      2.484098     0.260382     0.881140
H      0.995618     1.196912     1.043382
H      1.773561     1.026034    -0.530258
14
Iteration 10, Energy=-157.3072334867, |grad|=0.017729
C     -1.663485     0.309961     0.020630
C     -0.562608    -0.456667    -0.719246
C      0.697963    -0.748390     0.104221
C      1.538298     0.494568     0.401223
H     -1.279710     1.199690     0.535643
H     -2.146154    -0.325626     0.770373
H     -2.441459     0.632049    -0.679858
H     -0.285628     0.083890    -1.633894
H     -0.979081    -1.413329    -1.052172
H      0.401315    -1.221350     1.049596
H      1.301463    -1.495300    -0.424447
H      2.484776     0.256732     0.892257
H      0.991607     1.194027     1.039279
H      1.783378     1.020818    -0.525522
14
Iteration 1, Energy=-157.3072496201, |grad|=0.016593
C     -1.663423     0.310044     0.020559
C     -0.562734    -0.456736    -0.719442
C      0.697927    -0.748376     0.104583
C      1.538203     0.494629     0.400927
H     -1.279667     1.199596     0.534883
H     -2.145867    -0.325584     0.770706
H     -2.441624     0.632084    -0.679531
H     -0.285641     0.084138    -1.633825
H     -0.979096    -1.413334    -1.052262
H      0.400835    -1.221325     1.049737
H      1.301456    -1.494938    -0.424508
H      2.484836     0.256594     0.893327
H      0.991730     1.193840     1.039269
H      1.783657     1.020725    -0.525648
14
Iteration 2, Energy=-157.3072475016, |grad|=0.016661
C     -1.663479     0.309976     0.020536
C     -0.562696    -0.456828    -0.719374
C      0.697893    -0.748425     0.104578
C      1.538282     0.494683     0.400978
H     -1.279579     1.199503     0.535213
H     -2.146035    -0.325430     0.770426
H     -2.441430     0.631682    -0.679561
H     -0.285710     0.083862    -1.633807
H     -0.979131    -1.412967    -1.052370
H      0.400892    -1.221404     1.049783
H      1.301448    -1.494900    -0.424421
H      2.484822     0.256701     0.893031
H      0.991713     1.193849     1.039168
H      1.783388     1.020993    -0.525702
14
Iteration -1, Energy=-157.3072496201, |grad|=0.016593
C     -1.663423     0.310044     0.020559
C     -0.562734    -0.456736    -0.719442
C      0.697927    -0.748376     0.104583
C      1.538203     0.494629     0.400927
H     -1.279667     1.199596     0.534883
H     -2.145867    -0.325584     0.770706
H     -2.441624     0.632084    -0.679531
H     -0.285641     0.084138    -1.633825
H     -0.979096    -1.413334    -1.052262
H      0.400835    -1.221325     1.049737
H      1.301456    -1.494938    -0.424508
H      2.484836     0.256594     0.893327
H      0.991730     1.193840     1.039269
H      1.783657     1.020725    -0.525648
14
Iteration 1, Energy=-157.3073543848, |grad|=0.016139
C     -1.662701     0.310807     0.020940
C     -0.563852    -0.459789    -0.721098
C      0.695847    -0.748686     0.108546
C      1.537199     0.495972     0.398317
H     -1.282121     1.196908     0.531005
H     -2.143678    -0.324231     0.771049
H     -2.440050     0.632199    -0.677181
H     -0.284872     0.083870    -1.630921
H     -0.979586    -1.412219    -1.053686
H      0.402051    -1.221183     1.048593
H      1.301790    -1.491346    -0.424835
H      2.482170     0.254000     0.894878
H      0.994391     1.193775     1.039481
H      1.784003     1.021280    -0.526312
14
Iteration 2, Energy=-157.3074445722, |grad|=0.011803
C     -1.662191     0.308861     0.019827
C     -0.564470    -0.460863    -0.720165
C      0.694561    -0.747975     0.108545
C      1.536393     0.496103     0.397406
H     -1.283481     1.196117     0.527990
H     -2.141528    -0.322969     0.771820
H     -2.439149     0.632525    -0.675227
H     -0.283721     0.083757    -1.628527
H     -0.980844    -1.412612    -1.055817
H      0.402734    -1.221914     1.049583
H      1.301975    -1.487427    -0.424719
H      2.478879     0.251394     0.896021
H      0.996962     1.194303     1.039805
H      1.784471     1.022059    -0.527766
14
Iteration 3, Energy=-157.3075780552, |grad|=0.010460
C     -1.660253     0.303657     0.018345
C     -0.566095    -0.464310    -0.719377
C      0.690372    -0.744722     0.109580
C      1.533873     0.496723     0.394489
H     -1.284414     1.196951     0.519289
H     -2.136045    -0.321738     0.777671
H     -2.440830     0.633020    -0.673213
H     -0.279332     0.083927    -1.621629
H     -0.984806    -1.414855    -1.063309
H      0.405454    -1.224087     1.053178
H      1.304117    -1.476589    -0.426136
H      2.468719     0.241494     0.898988
H      1.003839     1.198923     1.041669
H      1.785993     1.022963    -0.530770
14
Iteration 4, Energy=-157.3075938922, |grad|=0.018631
C     -1.665117     0.303750     0.016699
C     -0.568114    -0.467697    -0.718603
C      0.689493    -0.746399     0.108700
C      1.530306     0.499483     0.396990
H     -1.282391     1.198554     0.512863
H     -2.131711    -0.321422     0.783051
H     -2.441769     0.630193    -0.670915
H     -0.275468     0.085219    -1.618846
H     -0.986606    -1.416089    -1.068905
H      0.407966    -1.224765     1.055199
H      1.305281    -1.468411    -0.426973
H      2.462220     0.233010     0.900201
H      1.008845     1.203441     1.041831
H      1.787657     1.022490    -0.532515
14
Iteration 5, Energy=-157.3076475625, |grad|=0.006857
C     -1.663790     0.303598     0.018063
C     -0.568090    -0.466413    -0.719148
C      0.689127    -0.745261     0.109395
C      1.531165     0.498365     0.396267
H     -1.281851     1.198852     0.513568
H     -2.132394    -0.321510     0.782816
H     -2.443300     0.630034    -0.672299
H     -0.275946     0.085076    -1.619470
H     -0.986220    -1.416172    -1.068379
H      0.407856    -1.224679     1.054796
H      1.305874    -1.470339    -0.427528
H      2.463298     0.233809     0.899811
H      1.007401     1.204123     1.042268
H      1.787459     1.021874    -0.531384
14
Iteration 6, Energy=-157.3076704187, |grad|=0.004657
C     -1.664001     0.303935     0.018806
C     -0.568764    -0.466020    -0.719662
C      0.688608    -0.744785     0.109709
C      1.530789     0.498241     0.396696
H     -1.280436     1.199681     0.512310
H     -2.131882    -0.321433     0.784383
H     -2.445471     0.628400    -0.672922
H     -0.275472     0.085392    -1.619526
H     -0.986047    -1.416300    -1.069351
H      0.408520    -1.224757     1.054766
H      1.306784    -1.470112    -0.428361
H      2.462901     0.232090     0.899703
H      1.007231     1.206282     1.042557
H      1.787831     1.020743    -0.530334
14
Iteration 7, Energy=-157.3076958093, |grad|=0.005534
C     -1.664879     0.304313     0.019232
C     -0.569954    -0.465773    -0.720356
C      0.687541    -0.744297     0.109804
C      1.529675     0.498376     0.398183
H     -1.278128     1.201047     0.508803
H     -2.130079    -0.320447     0.787626
H     -2.449259     0.624520    -0.672759
H     -0.274618     0.086139    -1.619210
H     -0.985754    -1.416082    -1.071583
H      0.409882    -1.225162     1.054672
H      1.308077    -1.468315    -0.429615
H      2.461485     0.228203     0.899866
H      1.007714     1.210217     1.042738
H      1.788889     1.018617    -0.528624
14
Iteration 8, Energy=-157.3077296344, |grad|=0.005782
C     -1.665170     0.304230     0.018688
C     -0.570508    -0.465144    -0.721040
C      0.686588    -0.743483     0.109639
C      1.528605     0.498132     0.400452
H     -1.276293     1.202744     0.502869
H     -2.126806    -0.317426     0.791968
H     -2.454746     0.617778    -0.670788
H     -0.274873     0.087586    -1.619185
H     -0.985013    -1.414884    -1.074115
H      0.410842    -1.226460     1.053694
H      1.308559    -1.465438    -0.430723
H      2.460083     0.223948     0.901019
H      1.008357     1.214137     1.042398
H      1.790964     1.015635    -0.526099
14
Iteration 9, Energy=-157.3077743309, |grad|=0.015062
C     -1.668608     0.303043     0.018878
C     -0.571683    -0.463138    -0.723726
C      0.683081    -0.741591     0.109951
C      1.530224     0.497353     0.406902
H     -1.274467     1.210559     0.484873
H     -2.114402    -0.308680     0.804535
H     -2.468317     0.598728    -0.664607
H     -0.276599     0.093035    -1.620336
H     -0.982912    -1.412937    -1.080227
H      0.410256    -1.231325     1.050313
H      1.309988    -1.459354    -0.434762
H      2.455504     0.215650     0.907351
H      1.010046     1.220370     1.041788
H      1.798479     1.009644    -0.522158
14
Iteration 10, Energy=-157.3078480112, |grad|=0.007341
C     -1.667641     0.303378     0.017089
C     -0.572688    -0.461037    -0.724987
C      0.683142    -0.740478     0.108616
C      1.529336     0.496768     0.409527
H     -1.275342     1.216029     0.470327
H     -2.105021    -0.302146     0.815298
H     -2.479257     0.583579    -0.659146
H     -0.279311     0.097479    -1.621552
H     -0.980812    -1.410696    -1.083984
H      0.408330    -1.235630     1.047242
H      1.309179    -1.454533    -0.436711
H      2.454649     0.210600     0.914219
H      1.011271     1.223171     1.041025
H      1.804756     1.004871    -0.518186
14
Iteration 1, Energy=-157.3078582614, |grad|=0.008497
C     -1.667914     0.303420     0.017556
C     -0.572707    -0.460707    -0.725346
C      0.682628    -0.740387     0.108598
C      1.529422     0.496690     0.409571
H     -1.275341     1.217301     0.465618
H     -2.101695    -0.302142     0.818808
H     -2.482523     0.578141    -0.658385
H     -0.279574     0.098612    -1.621724
H     -0.980605    -1.410328    -1.085686
H      0.408278    -1.236207     1.047099
H      1.309234    -1.454431    -0.436796
H      2.454269     0.209473     0.916127
H      1.011357     1.223106     1.040862
H      1.806447     1.004001    -0.518186
14
Iteration 2, Energy=-157.3078609175, |grad|=0.010599
C     -1.667952     0.303456     0.017510
C     -0.572684    -0.460195    -0.725620
C      0.682395    -0.740405     0.108511
C      1.529451     0.496563     0.409101
H     -1.275298     1.218232     0.462272
H     -2.099479    -0.303558     0.821310
H     -2.485206     0.574100    -0.657487
H     -0.279833     0.099753    -1.621970
H     -0.980457    -1.409748    -1.086765
H      0.408216    -1.236485     1.047232
H      1.309157    -1.454740    -0.436585
H      2.454325     0.209022     0.917557
H      1.011318     1.222513     1.040612
H      1.807927     1.003141    -0.518723
14
Iteration -1, Energy=-157.3078480112, |grad|=0.007341
C     -1.667641     0.303378     0.017089
C     -0.572688    -0.461037    -0.724987
C      0.683142    -0.740478     0.108616
C      1.529336     0.496768     0.409527
H     -1.275342     1.216029     0.470327
H     -2.105021    -0.302146     0.815298
H     -2.479257     0.583579    -0.659146
H     -0.279311     0.097479    -1.621552
H     -0.980812    -1.410696    -1.083984
H      0.408330    -1.235630     1.047242
H      1.309179    -1.454533    -0.436711
H      2.454649     0.210600     0.914219
H      1.011271     1.223171     1.041025
H      1.804756     1.004871    -0.518186
14
Iteration 1, Energy=-157.3078942544, |grad|=0.009077
C     -1.667083     0.303319     0.016217
C     -0.570784    -0.461786    -0.724519
C      0.684795    -0.741837     0.106609
C      1.529050     0.495301     0.407257
H     -1.280068     1.218945     0.468822
H     -2.102037    -0.303302     0.817489
H     -2.478029     0.584416    -0.658778
H     -0.280242     0.097639    -1.620390
H     -0.981475    -1.411002    -1.083225
H      0.406071    -1.235069     1.045830
H      1.307530    -1.454726    -0.436309
H      2.454537     0.213309     0.917519
H      1.011851     1.219414     1.041501
H      1.806476     1.006736    -0.519246
14
Iteration 2, Energy=-157.3079298694, |grad|=0.005653
C     -1.665962     0.302600     0.017539
C     -0.570228    -0.462283    -0.724631
C      0.684506    -0.742027     0.106604
C      1.531043     0.494342     0.405682
H     -1.285347     1.222149     0.466892
H     -2.098087    -0.303745     0.818949
H     -2.477265     0.584861    -0.659015
H     -0.280958     0.097925    -1.619707
H     -0.981968    -1.411100    -1.082201
H      0.403911    -1.234270     1.043721
H      1.307307    -1.457072    -0.437338
H      2.453491     0.216456     0.920431
H      1.011850     1.215052     1.041735
H      1.808299     1.008469    -0.519885
14
Iteration 3, Energy=-157.3079466307, |grad|=0.004328
C     -1.666057     0.302943     0.017801
C     -0.571184    -0.461337    -0.724398
C      0.685284    -0.742213     0.105379
C      1.532020     0.494798     0.405643
H     -1.288126     1.224233     0.465722
H     -2.095481    -0.303858     0.819988
H     -2.476603     0.583727    -0.658713
H     -0.281085     0.098254    -1.620125
H     -0.982175    -1.411182    -1.081475
H      0.402593    -1.234082     1.043280
H      1.307283    -1.459306    -0.438133
H      2.453453     0.217862     0.921976
H      1.011179     1.212495     1.041444
H      1.809489     1.009023    -0.519612
14
Iteration 4, Energy=-157.3079649725, |grad|=0.004561
C     -1.666256     0.304151     0.018581
C     -0.571459    -0.459832    -0.724978
C      0.686241    -0.742680     0.104222
C      1.532992     0.494255     0.405461
H     -1.291002     1.227026     0.464244
H     -2.092227    -0.303716     0.821552
H     -2.476853     0.580968    -0.658538
H     -0.281416     0.098661    -1.621121
H     -0.982420    -1.410639    -1.080283
H      0.401574    -1.233575     1.042382
H      1.307036    -1.462390    -0.439239
H      2.454239     0.219044     0.923757
H      1.008923     1.210546     1.041391
H      1.811221     1.009537    -0.518655
14
Iteration 5, Energy=-157.3079913567, |grad|=0.007332
C     -1.665399     0.305680     0.019476
C     -0.570639    -0.456816    -0.725069
C      0.687798    -0.744480     0.100829
C      1.534773     0.493202     0.407674
H     -1.296532     1.234840     0.461068
H     -2.084665    -0.302572     0.825735
H     -2.479924     0.572853    -0.658336
H     -0.282287     0.100192    -1.624887
H     -0.983153    -1.407913    -1.077338
H      0.400235    -1.232171     1.039749
H      1.305565    -1.468978    -0.441423
H      2.456024     0.221028     0.927228
H      1.003142     1.205968     1.040025
H      1.815653     1.010523    -0.515956
14
Iteration 6, Energy=-157.3080122709, |grad|=0.005116
C     -1.664839     0.307466     0.019283
C     -0.569135    -0.454888    -0.726621
C      0.689292    -0.744237     0.100249
C      1.535259     0.492165     0.407283
H     -1.298621     1.238115     0.458597
H     -2.080741    -0.300934     0.828246
H     -2.482465     0.566623    -0.657165
H     -0.283094     0.100592    -1.626352
H     -0.983817    -1.405523    -1.076097
H      0.400406    -1.232051     1.038310
H      1.304241    -1.471233    -0.442320
H      2.456705     0.220883     0.928972
H      0.999714     1.204312     1.039026
H      1.817685     1.010066    -0.512634
14
Iteration 7, Energy=-157.3080250478, |grad|=0.004002
C     -1.664372     0.307747     0.019063
C     -0.568104    -0.454318    -0.726793
C      0.689560    -0.744015     0.100065
C      1.535086     0.491016     0.408021
H     -1.298586     1.238972     0.457103
H     -2.079219    -0.299409     0.829082
H     -2.484341     0.563442    -0.656259
H     -0.283292     0.100858    -1.627074
H     -0.984218    -1.404211    -1.076128
H      0.401154    -1.232344     1.037817
H      1.303443    -1.470644    -0.442274
H      2.456361     0.220037     0.929402
H      0.998614     1.204305     1.038397
H      1.818506     1.009921    -0.511647
14
Iteration 8, Energy=-157.3080425428, |grad|=0.004918
C     -1.663262     0.307873     0.018221
C     -0.566978    -0.453386    -0.726842
C      0.689047    -0.744197     0.099998
C      1.534654     0.490134     0.408708
H     -1.298990     1.241436     0.453039
H     -2.075251    -0.296330     0.831665
H     -2.488093     0.556940    -0.654086
H     -0.283419     0.101654    -1.628234
H     -0.984965    -1.401743    -1.076564
H      0.402453    -1.233150     1.036598
H      1.302406    -1.469096    -0.442634
H      2.455441     0.218018     0.931474
H      0.997146     1.203620     1.037247
H      1.820402     1.009584    -0.509812
14
Iteration 9, Energy=-157.3080668249, |grad|=0.007124
C     -1.662305     0.308487     0.017810
C     -0.566297    -0.452080    -0.727864
C      0.688812    -0.743418     0.098504
C      1.535023     0.488155     0.410313
H     -1.300864     1.246500     0.445083
H     -2.067369    -0.291892     0.837055
H     -2.493631     0.546812    -0.650744
H     -0.283347     0.102954    -1.629085
H     -0.986195    -1.398700    -1.077590
H      0.403310    -1.235082     1.035569
H      1.301579    -1.467404    -0.444157
H      2.452781     0.215414     0.935638
H      0.995079     1.202188     1.036156
H      1.824015     1.009421    -0.507913
14
Iteration 10, Energy=-157.3081116413, |grad|=0.008319
C     -1.661490     0.309436     0.017561
C     -0.566300    -0.449456    -0.729054
C      0.688214    -0.743488     0.096891
C      1.535231     0.486366     0.411949
H     -1.304786     1.255990     0.430079
H     -2.052620    -0.284585     0.847354
H     -2.502693     0.529991    -0.645012
H     -0.282840     0.105617    -1.630326
H     -0.988343    -1.394986    -1.080087
H      0.404234    -1.238070     1.032831
H      1.301043    -1.464712    -0.447684
H      2.448169     0.210821     0.943959
H      0.992308     1.199643     1.034935
H      1.830464     1.008789    -0.504621
14
Iteration 1, Energy=-157.3081188246, |grad|=0.010364
C     -1.661362     0.309439     0.017427
C     -0.566326    -0.448583    -0.729721
C      0.688194    -0.743433     0.096481
C      1.535364     0.485665     0.412613
H     -1.305973     1.259672     0.424694
H     -2.047708    -0.284576     0.851702
H     -2.506032     0.524149    -0.644991
H     -0.282812     0.106413    -1.630717
H     -0.988347    -1.393964    -1.080347
H      0.404247    -1.238089     1.032349
H      1.300808    -1.464620    -0.448238
H      2.448151     0.210757     0.946819
H      0.992216     1.199488     1.034610
H      1.832823     1.008698    -0.504492
14
Iteration 2, Energy=-157.3081007138, |grad|=0.014899
C     -1.661494     0.309009     0.017327
C     -0.566442    -0.447712    -0.730227
C      0.688209    -0.743435     0.096200
C      1.535386     0.485045     0.413038
H     -1.306930     1.262826     0.420316
H     -2.043264    -0.286577     0.855147
H     -2.508966     0.518781    -0.646701
H     -0.282805     0.107228    -1.630899
H     -0.987703    -1.392919    -1.080754
H      0.404056    -1.237409     1.032174
H      1.300682    -1.464838    -0.448738
H      2.449343     0.211585     0.949239
H      0.992862     1.200056     1.034332
H      1.834690     1.008358    -0.505202
14
Iteration -1, Energy=-157.3081116413, |grad|=0.008319
C     -1.661490     0.309436     0.017561
C     -0.566300    -0.449456    -0.729054
C      0.688214    -0.743488     0.096891
C      1.535231     0.486366     0.411949
H     -1.304786     1.255990     0.430079
H     -2.052620    -0.284585     0.847354
H     -2.502693     0.529991    -0.645012
H     -0.282840     0.105617    -1.630326
H     -0.988343    -1.394986    -1.080087
H      0.404234    -1.238070     1.032831
H      1.301043    -1.464712    -0.447684
H      2.448169     0.210821     0.943959
H      0.992308     1.199643     1.034935
H      1.830464     1.008789    -0.504621
14
Iteration 1, Energy=-157.3081319931, |grad|=0.005230
C     -1.662295     0.309923     0.017726
C     -0.567645    -0.449640    -0.729238
C      0.688084    -0.743691     0.097303
C      1.535174     0.487892     0.411197
H     -1.305011     1.256227     0.429237
H     -2.052117    -0.284938     0.848236
H     -2.502169     0.530374    -0.644948
H     -0.282531     0.105855    -1.630005
H     -0.988039    -1.395840    -1.080518
H      0.403797    -1.238084     1.032629
H      1.302095    -1.465402    -0.448658
H      2.448204     0.210603     0.944357
H      0.992717     1.200116     1.035472
H      1.830327     1.007961    -0.504013
14
Iteration 2, Energy=-157.3081471302, |grad|=0.004196
C     -1.663222     0.309957     0.018341
C     -0.569005    -0.449966    -0.729311
C      0.688153    -0.743853     0.096770
C      1.535070     0.488615     0.411675
H     -1.305312     1.256864     0.427865
H     -2.051249    -0.285225     0.849529
H     -2.501897     0.531155    -0.645090
H     -0.282175     0.106175    -1.629359
H     -0.987686    -1.397254    -1.081291
H      0.403067    -1.238227     1.032592
H      1.303304    -1.465891    -0.449782
H      2.447738     0.210540     0.944647
H      0.993370     1.201172     1.036352
H      1.830436     1.007292    -0.504163
14
Iteration 3, Energy=-157.3081624380, |grad|=0.004141
C     -1.663965     0.309411     0.019091
C     -0.569609    -0.451386    -0.729619
C      0.687846    -0.744805     0.096330
C      1.534004     0.488691     0.412042
H     -1.305920     1.258277     0.424782
H     -2.049612    -0.285326     0.852628
H     -2.502387     0.532724    -0.645252
H     -0.282189     0.106761    -1.627666
H     -0.986982    -1.399538    -1.082883
H      0.401979    -1.238366     1.031291
H      1.304795    -1.465308    -0.451370
H      2.446961     0.210371     0.945576
H      0.994830     1.203684     1.038240
H      1.830840     1.006167    -0.504414
14
Iteration 4, Energy=-157.3081681239, |grad|=0.006190
C     -1.664288     0.308428     0.018609
C     -0.570323    -0.453127    -0.729087
C      0.687791    -0.744284     0.094837
C      1.533473     0.489093     0.413706
H     -1.306261     1.259070     0.421340
H     -2.047845    -0.284012     0.855245
H     -2.502801     0.533026    -0.644046
H     -0.282542     0.107471    -1.626564
H     -0.986112    -1.400813    -1.084470
H      0.400843    -1.239859     1.030690
H      1.305557    -1.463631    -0.452208
H      2.445190     0.210160     0.946097
H      0.996866     1.204960     1.038753
H      1.831043     1.004875    -0.504125
14
Iteration 5, Energy=-157.3081753489, |grad|=0.002977
C     -1.663931     0.308178     0.018876
C     -0.569935    -0.452799    -0.729508
C      0.687562    -0.744257     0.095492
C      1.533375     0.488569     0.413538
H     -1.306166     1.258946     0.420792
H     -2.047627    -0.283392     0.855341
H     -2.503254     0.532677    -0.643859
H     -0.282864     0.107357    -1.626349
H     -0.986062    -1.400862    -1.084647
H      0.400960    -1.240096     1.030213
H      1.305462    -1.463067    -0.452171
H      2.445072     0.210013     0.946277
H      0.996881     1.205210     1.038816
H      1.831117     1.004881    -0.504035
14
Iteration 6, Energy=-157.3081812475, |grad|=0.002633
C     -1.663531     0.307842     0.018753
C     -0.569676    -0.452800    -0.729783
C      0.687177    -0.744086     0.096078
C      1.533065     0.488144     0.413595
H     -1.305905     1.258871     0.419110
H     -2.046892    -0.282001     0.856173
H     -2.504026     0.531735    -0.643008
H     -0.283443     0.107477    -1.626134
H     -0.985695    -1.400965    -1.085228
H      0.400915    -1.241041     1.029442
H      1.305413    -1.461649    -0.452215
H      2.444628     0.209556     0.946802
H      0.997304     1.205724     1.038859
H      1.831257     1.004549    -0.503666
14
Iteration 7, Energy=-157.3081884461, |grad|=0.003394
C     -1.663314     0.307489     0.018512
C     -0.569798    -0.452974    -0.730098
C      0.686488    -0.743824     0.096524
C      1.532643     0.487934     0.414105
H     -1.305196     1.259158     0.415950
H     -2.045376    -0.279688     0.858037
H     -2.505421     0.529812    -0.641554
H     -0.284242     0.107897    -1.626045
H     -0.984922    -1.401244    -1.086290
H      0.400656    -1.242910     1.028449
H      1.305679    -1.459437    -0.452607
H      2.443869     0.208579     0.947844
H      0.997967     1.206735     1.039031
H      1.831559     1.003830    -0.503082
14
Iteration 8, Energy=-157.3082011516, |grad|=0.003782
C     -1.663310     0.307567     0.018169
C     -0.570414    -0.452934    -0.730908
C      0.685569    -0.743412     0.096769
C      1.531981     0.487808     0.415700
H     -1.303175     1.260782     0.409684
H     -2.042056    -0.275553     0.862432
H     -2.508951     0.524951    -0.639194
H     -0.285535     0.108786    -1.626476
H     -0.983607    -1.401687    -1.088109
H      0.400187    -1.246569     1.026910
H      1.306528    -1.455857    -0.453912
H      2.442550     0.206328     0.950098
H      0.998430     1.208698     1.039526
H      1.832392     1.002449    -0.501912
14
Iteration 9, Energy=-157.3082070253, |grad|=0.005697
C     -1.664064     0.307272     0.018600
C     -0.570594    -0.453242    -0.730834
C      0.684731    -0.743405     0.096524
C      1.531778     0.487844     0.416949
H     -1.302244     1.262797     0.404723
H     -2.038435    -0.272096     0.865164
H     -2.511437     0.520953    -0.637340
H     -0.286177     0.109511    -1.627230
H     -0.983142    -1.401662    -1.089055
H      0.400089    -1.248435     1.025183
H      1.307296    -1.454048    -0.455350
H      2.441266     0.204935     0.951885
H      0.998302     1.209555     1.039966
H      1.833224     1.001377    -0.500408
14
Iteration 10, Energy=-157.3082181754, |grad|=0.003440
C     -1.664122     0.308150     0.018219
C     -0.571530    -0.452917    -0.731495
C      0.684579    -0.743178     0.095775
C      1.531137     0.487887     0.418796
H     -1.300878     1.265292     0.398515
H     -2.034393    -0.268556     0.869788
H     -2.514962     0.515509    -0.635256
H     -0.287031     0.110212    -1.627946
H     -0.982520    -1.401759    -1.090194
H      0.399807    -1.251192     1.023747
H      1.308242    -1.451867    -0.457184
H      2.439976     0.202921     0.954299
H      0.997906     1.210687     1.040531
H      1.834380     1.000167    -0.498820
14
Iteration 1, Energy=-157.3082191256, |grad|=0.003233
C     -1.664204     0.308171     0.018255
C     -0.571590    -0.452920    -0.731691
C      0.684579    -0.743156     0.095737
C      1.531088     0.487922     0.419084
H     -1.300787     1.265796     0.397817
H     -2.034294    -0.268436     0.870779
H     -2.515542     0.515035    -0.635170
H     -0.287027     0.110348    -1.628013
H     -0.982493    -1.401773    -1.090249
H      0.399810    -1.251326     1.023650
H      1.308360    -1.451867    -0.457713
H      2.439968     0.202743     0.954514
H      0.997898     1.210806     1.040616
H      1.834435     0.999982    -0.498802
14
Iteration 2, Energy=-157.3082187382, |grad|=0.003187
C     -1.664237     0.308087     0.018261
C     -0.571608    -0.453052    -0.731740
C      0.684638    -0.743160     0.095620
C      1.531071     0.487967     0.419185
H     -1.300963     1.265898     0.397991
H     -2.034731    -0.268813     0.871014
H     -2.515497     0.515500    -0.635376
H     -0.286935     0.110373    -1.627934
H     -0.982514    -1.401836    -1.090212
H      0.399799    -1.251188     1.023747
H      1.308395    -1.452048    -0.457887
H      2.440049     0.202892     0.954319
H      0.997937     1.210820     1.040654
H      1.834324     0.999936    -0.498954
14
Iteration -1, Energy=-157.3082187382, |grad|=0.003187
C     -1.664237     0.308087     0.018261
C     -0.571608    -0.453052    -0.731740
C      0.684638    -0.743160     0.095620
C      1.531071     0.487967     0.419185
H     -1.300963     1.265898     0.397991
H     -2.034731    -0.268813     0.871014
H     -2.515497     0.515500    -0.635376
H     -0.286935     0.110373    -1.627934
H     -0.982514    -1.401836    -1.090212
H      0.399799    -1.251188     1.023747
H      1.308395    -1.452048    -0.457887
H      2.440049     0.202892     0.954319
H      0.997937     1.210820     1.040654
H      1.834324     0.999936    -0.498954
14
Iteration 1, Energy=-157.3082232899, |grad|=0.003224
C     -1.664019     0.308529     0.018109
C     -0.571822    -0.452526    -0.731740
C      0.685438    -0.743279     0.094708
C      1.531086     0.487734     0.418843
H     -1.301871     1.266029     0.397715
H     -2.033945    -0.268702     0.870871
H     -2.515134     0.515132    -0.635071
H     -0.286898     0.110062    -1.627668
H     -0.982990    -1.401817    -1.089926
H      0.399801    -1.250954     1.023900
H      1.308112    -1.452349    -0.457853
H      2.439903     0.203109     0.954583
H      0.997509     1.210269     1.040778
H      1.834560     1.000137    -0.498562
14
Iteration 2, Energy=-157.3082285141, |grad|=0.003203
C     -1.663720     0.308791     0.018078
C     -0.571864    -0.452332    -0.731703
C      0.685675    -0.743351     0.094274
C      1.531185     0.487529     0.418646
H     -1.303000     1.266573     0.397433
H     -2.032833    -0.268525     0.870685
H     -2.514858     0.514653    -0.634824
H     -0.286825     0.109805    -1.627586
H     -0.983608    -1.401555    -1.089446
H      0.399987    -1.250430     1.023670
H      1.308011    -1.453080    -0.458133
H      2.439691     0.203403     0.954931
H      0.996923     1.209357     1.040832
H      1.834963     1.000538    -0.498170
14
Iteration 3, Energy=-157.3082425433, |grad|=0.005838
C     -1.661736     0.309995     0.017405
C     -0.570804    -0.451764    -0.731322
C      0.687286    -0.744843     0.091177
C      1.531159     0.486802     0.418194
H     -1.308869     1.271870     0.396041
H     -2.026469    -0.268295     0.871430
H     -2.514712     0.511407    -0.634326
H     -0.286253     0.108793    -1.628538
H     -0.987532    -1.399741    -1.086321
H      0.401153    -1.247602     1.022580
H      1.306776    -1.457007    -0.459685
H      2.438997     0.204682     0.957460
H      0.993019     1.203552     1.040890
H      1.837712     1.003524    -0.496298
14
Iteration 4, Energy=-157.3082483359, |grad|=0.002945
C     -1.661516     0.310843     0.018051
C     -0.570413    -0.451363    -0.732121
C      0.687561    -0.744721     0.091316
C      1.531886     0.486129     0.417566
H     -1.310183     1.273184     0.395338
H     -2.024733    -0.268119     0.871873
H     -2.514924     0.510141    -0.634370
H     -0.286110     0.108411    -1.629035
H     -0.988521    -1.399272    -1.085485
H      0.401518    -1.247174     1.022252
H      1.306716    -1.458272    -0.460444
H      2.438647     0.204900     0.958127
H      0.991461     1.202356     1.041135
H      1.838339     1.004330    -0.495517
14
Iteration 5, Energy=-157.3082508450, |grad|=0.001866
C     -1.661822     0.310788     0.018217
C     -0.570468    -0.451350    -0.732135
C      0.687296    -0.744616     0.091752
C      1.531948     0.486311     0.417890
H     -1.309597     1.273240     0.395233
H     -2.024970    -0.268034     0.872180
H     -2.515175     0.509936    -0.634450
H     -0.286062     0.108561    -1.629551
H     -0.988266    -1.399266    -1.085615
H      0.401518    -1.247543     1.022266
H      1.306872    -1.458145    -0.460539
H      2.438717     0.204666     0.958078
H      0.991500     1.202525     1.040971
H      1.838237     1.004300    -0.495608
14
Iteration 6, Energy=-157.3082536437, |grad|=0.001829
C     -1.662012     0.311005     0.018431
C     -0.570490    -0.450979    -0.732252
C      0.687209    -0.744653     0.091897
C      1.532075     0.486404     0.418265
H     -1.309290     1.274022     0.394565
H     -2.024416    -0.267636     0.873033
H     -2.515752     0.508823    -0.634408
H     -0.285959     0.108556    -1.630629
H     -0.988265    -1.398948    -1.085426
H      0.401668    -1.248058     1.022186
H      1.306898    -1.458255    -0.460867
H      2.438792     0.204323     0.958457
H      0.990871     1.202149     1.040744
H      1.838397     1.004620    -0.495309
14
Iteration 7, Energy=-157.3082568819, |grad|=0.002206
C     -1.662047     0.311473     0.018519
C     -0.570391    -0.450391    -0.732475
C      0.687266    -0.744717     0.091620
C      1.532182     0.486193     0.418775
H     -1.309302     1.275282     0.393147
H     -2.023017    -0.266639     0.874320
H     -2.516582     0.506826    -0.633953
H     -0.285963     0.108299    -1.631868
H     -0.988404    -1.398316    -1.085030
H      0.401938    -1.248758     1.021837
H      1.306786    -1.458365    -0.461376
H      2.438750     0.203925     0.959218
H      0.989751     1.201417     1.040536
H      1.838763     1.005146    -0.494584
14
Iteration 8, Energy=-157.3082624121, |grad|=0.004206
C     -1.661242     0.312265     0.018663
C     -0.570417    -0.449063    -0.732813
C      0.687572    -0.745080     0.091035
C      1.532064     0.486032     0.419510
H     -1.309625     1.278348     0.388839
H     -2.018998    -0.263356     0.877490
H     -2.519066     0.501866    -0.632460
H     -0.286254     0.107642    -1.634220
H     -0.988694    -1.397158    -1.084376
H      0.402480    -1.250519     1.020239
H      1.306576    -1.458161    -0.462840
H      2.438425     0.202916     0.961379
H      0.987364     1.199789     1.040377
H      1.839542     1.005853    -0.492135
14
Iteration 9, Energy=-157.3082706437, |grad|=0.003442
C     -1.660814     0.313629     0.018301
C     -0.569983    -0.448192    -0.733406
C      0.687947    -0.745013     0.089490
C      1.532037     0.484899     0.421237
H     -1.310404     1.282108     0.383159
H     -2.013590    -0.259098     0.881424
H     -2.521570     0.495783    -0.629974
H     -0.286808     0.106785    -1.636297
H     -0.989161    -1.395856    -1.083626
H      0.403001    -1.252684     1.018316
H      1.306420    -1.457828    -0.464803
H      2.437390     0.202028     0.963898
H      0.984567     1.197972     1.040538
H      1.840696     1.006841    -0.489572
14
Iteration 10, Energy=-157.3082827773, |grad|=0.003619
C     -1.659908     0.314923     0.017810
C     -0.569709    -0.447574    -0.734225
C      0.688389    -0.745298     0.087698
C      1.531380     0.483912     0.422998
H     -1.311584     1.286587     0.375327
H     -2.006475    -0.253251     0.886236
H     -2.524683     0.488829    -0.626533
H     -0.287780     0.105906    -1.637572
H     -0.989656    -1.395206    -1.083227
H      0.403355    -1.255317     1.015337
H      1.306605    -1.456770    -0.467560
H      2.435816     0.200980     0.967247
H      0.981965     1.196283     1.041440
H      1.842014     1.007371    -0.486290
14
Iteration 1, Energy=-157.3082827482, |grad|=0.003770
C     -1.659791     0.315049     0.017749
C     -0.569659    -0.447461    -0.734274
C      0.688458    -0.745323     0.087476
C      1.531329     0.483825     0.423003
H     -1.311713     1.287153     0.375223
H     -2.005672    -0.253209     0.886300
H     -2.524720     0.488504    -0.626514
H     -0.287848     0.105774    -1.637562
H     -0.989714    -1.395031    -1.083129
H      0.403438    -1.255504     1.015156
H      1.306588    -1.456670    -0.467756
H      2.435748     0.200935     0.967563
H      0.981566     1.195961     1.041517
H      1.842186     1.007503    -0.486010
14
Iteration 2, Energy=-157.3082820262, |grad|=0.003828
C     -1.659738     0.315052     0.017738
C     -0.569621    -0.447467    -0.734266
C      0.688505    -0.745341     0.087395
C      1.531357     0.483816     0.422868
H     -1.311859     1.287194     0.375788
H     -2.005635    -0.253578     0.885932
H     -2.524504     0.488833    -0.626786
H     -0.287821     0.105732    -1.637433
H     -0.989796    -1.395006    -1.083053
H      0.403465    -1.255371     1.015242
H      1.306557    -1.456771    -0.467695
H      2.435822     0.201020     0.967521
H      0.981495     1.195817     1.041529
H      1.842215     1.007578    -0.486062
14
Iteration -1, Energy=-157.3082827773, |grad|=0.003619
C     -1.659908     0.314923     0.017810
C     -0.569709    -0.447574    -0.734225
C      0.688389    -0.745298     0.087698
C      1.531380     0.483912     0.422998
H     -1.311584     1.286587     0.375327
H     -2.006475    -0.253251     0.886236
H     -2.524683     0.488829    -0.626533
H     -0.287780     0.105906    -1.637572
H     -0.989656    -1.395206    -1.083227
H      0.403355    -1.255317     1.015337
H      1.306605    -1.456770    -0.467560
H      2.435816     0.200980     0.967247
H      0.981965     1.196283     1.041440
H      1.842014     1.007371    -0.486290
14
Iteration 1, Energy=-157.3082897335, |grad|=0.004638
C     -1.659108     0.314617     0.018213
C     -0.570244    -0.448630    -0.734255
C      0.688127    -0.745461     0.088128
C      1.531279     0.484110     0.422151
H     -1.312260     1.286817     0.374306
H     -2.005640    -0.252997     0.886365
H     -2.524830     0.489696    -0.626603
H     -0.287847     0.106438    -1.636393
H     -0.989915    -1.396421    -1.083652
H      0.403028    -1.255041     1.014737
H      1.307383    -1.456572    -0.468371
H      2.435124     0.201236     0.967573
H      0.982600     1.196809     1.042659
H      1.842032     1.006772    -0.486170
14
Iteration 2, Energy=-157.3082961172, |grad|=0.002360
C     -1.659178     0.314407     0.017924
C     -0.570441    -0.449425    -0.734169
C      0.688221    -0.745683     0.087607
C      1.530786     0.484283     0.422437
H     -1.312647     1.287160     0.373431
H     -2.004927    -0.252837     0.886719
H     -2.524549     0.490318    -0.626312
H     -0.287935     0.106840    -1.635351
H     -0.990162    -1.397489    -1.084037
H      0.402677    -1.255010     1.014597
H      1.307849    -1.456147    -0.468844
H      2.434487     0.201442     0.967771
H      0.983383     1.197056     1.043427
H      1.842163     1.006460    -0.486511
14
Iteration 3, Energy=-157.3082992160, |grad|=0.001485
C     -1.659486     0.314253     0.017726
C     -0.570635    -0.450253    -0.734425
C      0.688098    -0.745852     0.087257
C      1.530191     0.484375     0.422819
H     -1.312770     1.287476     0.372020
H     -2.004053    -0.252494     0.887449
H     -2.524307     0.490826    -0.625945
H     -0.288130     0.107172    -1.634198
H     -0.990306    -1.398536    -1.084487
H      0.402396    -1.255265     1.014354
H      1.308497    -1.455403    -0.469413
H      2.433741     0.201509     0.968044
H      0.984269     1.197451     1.044309
H      1.842225     1.006117    -0.486823
14
Iteration 4, Energy=-157.3083005030, |grad|=0.001801
C     -1.659405     0.314005     0.017614
C     -0.570987    -0.450521    -0.734123
C      0.688022    -0.745931     0.086981
C      1.529897     0.484474     0.423016
H     -1.312515     1.287644     0.371008
H     -2.003591    -0.252124     0.888068
H     -2.524498     0.490871    -0.625812
H     -0.288207     0.107382    -1.634052
H     -0.990279    -1.398954    -1.084792
H      0.402311    -1.255718     1.014241
H      1.308810    -1.454724    -0.469606
H      2.433389     0.201344     0.968218
H      0.984658     1.197725     1.044706
H      1.842124     1.005901    -0.486781
14
Iteration 5, Energy=-157.3083024074, |grad|=0.001929
C     -1.659527     0.313860     0.017610
C     -0.571222    -0.450711    -0.734145
C      0.687784    -0.745898     0.086993
C      1.529595     0.484497     0.423320
H     -1.311968     1.287757     0.369646
H     -2.003057    -0.251514     0.888912
H     -2.524788     0.490649    -0.625587
H     -0.288403     0.107452    -1.633951
H     -0.990160    -1.399227    -1.085117
H      0.402344    -1.256429     1.014002
H      1.309196    -1.453850    -0.469856
H      2.433011     0.201005     0.968409
H      0.984988     1.198080     1.045084
H      1.841934     1.005702    -0.486634
14
Iteration 6, Energy=-157.3083076083, |grad|=0.003649
C     -1.659242     0.314154     0.017007
C     -0.572017    -0.451995    -0.734688
C      0.687535    -0.745526     0.087004
C      1.528293     0.484650     0.424917
H     -1.309353     1.288547     0.363291
H     -2.000333    -0.247350     0.892571
H     -2.526837     0.487991    -0.623672
H     -0.289726     0.107309    -1.633727
H     -0.989599    -1.399974    -1.086407
H      0.402650    -1.260080     1.012520
H      1.310469    -1.449940    -0.471315
H      2.431644     0.198951     0.969385
H      0.985414     1.199763     1.046923
H      1.840829     1.004874    -0.485124
14
Iteration 7, Energy=-157.3083103247, |grad|=0.001707
C     -1.659314     0.313729     0.017069
C     -0.571983    -0.451823    -0.734665
C      0.686796    -0.745480     0.087251
C      1.527911     0.484708     0.425912
H     -1.308118     1.289250     0.360714
H     -1.999048    -0.245302     0.893852
H     -2.527804     0.486669    -0.622905
H     -0.290235     0.107111    -1.633978
H     -0.989506    -1.400484    -1.086929
H      0.402964    -1.261510     1.011676
H      1.311156    -1.448603    -0.472085
H      2.431064     0.198138     0.969747
H      0.985424     1.200219     1.047527
H      1.840421     1.004753    -0.484500
14
Iteration 8, Energy=-157.3083116348, |grad|=0.001275
C     -1.659186     0.314045     0.017126
C     -0.571883    -0.451655    -0.734748
C      0.686829    -0.745463     0.087322
C      1.528015     0.484612     0.425966
H     -1.308124     1.289410     0.360801
H     -1.998964    -0.244969     0.893764
H     -2.527992     0.486078    -0.622770
H     -0.290225     0.106894    -1.634411
H     -0.989495    -1.400213    -1.086706
H      0.403109    -1.261534     1.011540
H      1.311028    -1.448885    -0.472178
H      2.431257     0.198089     0.969788
H      0.984948     1.199981     1.047409
H      1.840410     1.004985    -0.484216
14
Iteration 9, Energy=-157.3083142195, |grad|=0.001873
C     -1.658814     0.314758     0.017108
C     -0.571775    -0.451301    -0.735143
C      0.687013    -0.745585     0.087130
C      1.528021     0.484369     0.426228
H     -1.308064     1.290468     0.359843
H     -1.997929    -0.243427     0.894324
H     -2.528705     0.484210    -0.622103
H     -0.290325     0.106239    -1.635323
H     -0.989567    -1.399940    -1.086197
H      0.403439    -1.262061     1.010927
H      1.310961    -1.449136    -0.472839
H      2.431373     0.197887     0.970217
H      0.983784     1.199338     1.047653
H      1.840315     1.005555    -0.483139
14
Iteration 10, Energy=-157.3083181458, |grad|=0.003224
C     -1.658094     0.316012     0.017066
C     -0.571751    -0.451418    -0.735562
C      0.687069    -0.745785     0.086488
C      1.527630     0.483943     0.427282
H     -1.308043     1.292753     0.356568
H     -1.995096    -0.240179     0.896277
H     -2.530141     0.480954    -0.620724
H     -0.290573     0.105297    -1.636772
H     -0.989816    -1.399932    -1.085473
H      0.403938    -1.263436     1.009449
H      1.311341    -1.449017    -0.474555
H      2.430929     0.197534     0.971274
H      0.982163     1.198072     1.048650
H      1.840174     1.006577    -0.481281
14
Iteration 1, Energy=-157.3083188223, |grad|=0.003210
C     -1.658112     0.315957     0.017049
C     -0.571736    -0.451370    -0.735548
C      0.687032    -0.745761     0.086427
C      1.527630     0.483889     0.427396
H     -1.307935     1.293175     0.355811
H     -1.994497    -0.239800     0.896751
H     -2.530389     0.480453    -0.620449
H     -0.290641     0.105256    -1.636970
H     -0.989832    -1.399925    -1.085547
H      0.403985    -1.263681     1.009195
H      1.311342    -1.448945    -0.474788
H      2.430866     0.197451     0.971492
H      0.981908     1.197985     1.048644
H      1.840154     1.006515    -0.481077
14
Iteration 2, Energy=-157.3083189704, |grad|=0.003475
C     -1.658051     0.316063     0.017039
C     -0.571743    -0.451377    -0.735604
C      0.687019    -0.745768     0.086416
C      1.527582     0.483853     0.427549
H     -1.307844     1.293466     0.355263
H     -1.994098    -0.239340     0.897081
H     -2.530612     0.480004    -0.620238
H     -0.290703     0.105163    -1.637109
H     -0.989832    -1.399932    -1.085517
H      0.404044    -1.263933     1.008992
H      1.311392    -1.448866    -0.475011
H      2.430799     0.197352     0.971640
H      0.981744     1.197917     1.048746
H      1.840106     1.006583    -0.480837
14
Iteration -1, Energy=-157.3083188223, |grad|=0.003210
C     -1.658112     0.315957     0.017049
C     -0.571736    -0.451370    -0.735548
C      0.687032    -0.745761     0.086427
C      1.527630     0.483889     0.427396
H     -1.307935     1.293175     0.355811
H     -1.994497    -0.239800     0.896751
H     -2.530389     0.480453    -0.620449
H     -0.290641     0.105256    -1.636970
H     -0.989832    -1.399925    -1.085547
H      0.403985    -1.263681     1.009195
H      1.311342    -1.448945    -0.474788
H      2.430866     0.197451     0.971492
H      0.981908     1.197985     1.048644
H      1.840154     1.006515    -0.481077
14
Iteration 1, Energy=-157.3083204574, |grad|=0.001716
C     -1.658146     0.315859     0.016886
C     -0.571759    -0.451247    -0.735471
C      0.687277    -0.745915     0.086051
C      1.527516     0.483937     0.427447
H     -1.308056     1.293304     0.355728
H     -1.994372    -0.239858     0.896889
H     -2.530294     0.480548    -0.620436
H     -0.290620     0.105224    -1.636898
H     -0.989921    -1.400013    -1.085507
H      0.403913    -1.263705     1.009304
H      1.311251    -1.448851    -0.474714
H      2.430812     0.197515     0.971551
H      0.981972     1.197830     1.048679
H      1.840201     1.006571    -0.481119
14
Iteration 2, Energy=-157.3083217139, |grad|=0.001563
C     -1.658143     0.315762     0.016790
C     -0.571776    -0.451208    -0.735443
C      0.687487    -0.746069     0.085704
C      1.527431     0.483937     0.427383
H     -1.308385     1.293515     0.355483
H     -1.994047    -0.239952     0.897126
H     -2.530148     0.480758    -0.620476
H     -0.290579     0.105173    -1.636764
H     -0.990093    -1.400113    -1.085378
H      0.403826    -1.263677     1.009336
H      1.311223    -1.448826    -0.474738
H      2.430659     0.197677     0.971679
H      0.982024     1.197521     1.048831
H      1.840294     1.006701    -0.481147
14
Iteration 3, Energy=-157.3083233345, |grad|=0.001851
C     -1.658104     0.315662     0.016772
C     -0.571789    -0.451288    -0.735420
C      0.687663    -0.746256     0.085344
C      1.527350     0.483890     0.427191
H     -1.309074     1.293903     0.354950
H     -1.993344    -0.240083     0.897532
H     -2.529895     0.481136    -0.620583
H     -0.290494     0.105098    -1.636570
H     -0.990430    -1.400255    -1.085091
H      0.403716    -1.263565     1.009242
H      1.311294    -1.448925    -0.474927
H      2.430357     0.198000     0.971941
H      0.982050     1.196901     1.049166
H      1.840474     1.006981    -0.481160
14
Iteration 4, Energy=-157.3083251630, |grad|=0.001298
C     -1.657994     0.315723     0.016900
C     -0.571822    -0.451466    -0.735395
C      0.687772    -0.746451     0.085068
C      1.527321     0.483792     0.426950
H     -1.310082     1.294562     0.354062
H     -1.992130    -0.240071     0.898019
H     -2.529597     0.481411    -0.620689
H     -0.290389     0.104948    -1.636481
H     -0.990979    -1.400418    -1.084593
H      0.403684    -1.263391     1.008920
H      1.311477    -1.449256    -0.475383
H      2.430003     0.198397     0.972347
H      0.981808     1.195929     1.049698
H      1.840701     1.007491    -0.481036
14
Iteration 5, Energy=-157.3083267345, |grad|=0.001227
C     -1.657638     0.316055     0.016844
C     -0.571738    -0.451588    -0.735629
C      0.687926    -0.746536     0.084687
C      1.527380     0.483592     0.426911
H     -1.310866     1.295618     0.353073
H     -1.990753    -0.239669     0.898594
H     -2.529597     0.480992    -0.620635
H     -0.290436     0.104542    -1.636614
H     -0.991583    -1.400354    -1.083893
H      0.403871    -1.263421     1.008550
H      1.311568    -1.449674    -0.475970
H      2.429822     0.198611     0.972746
H      0.981039     1.194871     1.050245
H      1.840779     1.008160    -0.480521
14
Iteration 6, Energy=-157.3083290382, |grad|=0.001642
C     -1.657038     0.316821     0.016920
C     -0.571565    -0.451575    -0.735604
C      0.688235    -0.746978     0.084119
C      1.527237     0.483418     0.427174
H     -1.312084     1.297696     0.351035
H     -1.987962    -0.238378     0.899427
H     -2.529759     0.479628    -0.620335
H     -0.290521     0.103771    -1.637491
H     -0.992774    -1.400302    -1.082596
H      0.404429    -1.263539     1.007570
H      1.311676    -1.450426    -0.477149
H      2.429676     0.198795     0.973504
H      0.979395     1.192719     1.051133
H      1.840829     1.009550    -0.479319
14
Iteration 7, Energy=-157.3083312402, |grad|=0.002195
C     -1.656438     0.317965     0.016724
C     -0.571453    -0.451403    -0.735876
C      0.688785    -0.747096     0.083395
C      1.527274     0.482841     0.427636
H     -1.312717     1.299669     0.348972
H     -1.985445    -0.236640     0.900353
H     -2.530128     0.477541    -0.619700
H     -0.290741     0.102772    -1.638575
H     -0.993734    -1.400022    -1.081345
H      0.405081    -1.264119     1.006801
H      1.311687    -1.450953    -0.478276
H      2.429537     0.198757     0.974069
H      0.977455     1.190977     1.052034
H      1.840613     1.010908    -0.477824
14
Iteration 8, Energy=-157.3083337804, |grad|=0.001928
C     -1.655575     0.318956     0.016413
C     -0.571221    -0.450917    -0.736279
C      0.689164    -0.747475     0.082630
C      1.526940     0.482705     0.428434
H     -1.312851     1.302070     0.346517
H     -1.982774    -0.234140     0.901534
H     -2.530962     0.474738    -0.618840
H     -0.291112     0.101457    -1.639986
H     -0.994619    -1.399633    -1.080014
H      0.405954    -1.265077     1.005814
H      1.311701    -1.451251    -0.479575
H      2.429566     0.198420     0.974733
H      0.975417     1.189000     1.052881
H      1.840146     1.012347    -0.475874
14
Iteration 9, Energy=-157.3083359228, |grad|=0.002420
C     -1.654901     0.320079     0.015986
C     -0.571025    -0.450935    -0.736042
C      0.689534    -0.747835     0.081603
C      1.526431     0.482209     0.429640
H     -1.312494     1.304219     0.343421
H     -1.980130    -0.231060     0.903162
H     -2.531961     0.471750    -0.617659
H     -0.291413     0.100301    -1.641877
H     -0.995219    -1.399349    -1.078982
H      0.406723    -1.266530     1.004688
H      1.311809    -1.450850    -0.480889
H      2.429256     0.197989     0.975348
H      0.973691     1.187403     1.054047
H      1.839473     1.013811    -0.474060
14
Iteration 10, Energy=-157.3083381956, |grad|=0.001981
C     -1.654747     0.320287     0.015879
C     -0.570999    -0.450669    -0.736312
C      0.689733    -0.748056     0.081372
C      1.526023     0.482145     0.429985
H     -1.312029     1.304912     0.341827
H     -1.979184    -0.229513     0.904078
H     -2.532428     0.470638    -0.617072
H     -0.291604     0.099686    -1.642315
H     -0.995285    -1.399508    -1.078815
H      0.406926    -1.267406     1.004151
H      1.311978    -1.450251    -0.481445
H      2.428998     0.197711     0.975638
H      0.973367     1.187024     1.054714
H      1.839025     1.014201    -0.473299
14
Iteration 1, Energy=-157.3083383236, |grad|=0.002439
C     -1.654703     0.320297     0.015573
C     -0.570997    -0.450840    -0.736274
C      0.689725    -0.748175     0.081291
C      1.526002     0.482136     0.430026
H     -1.312007     1.305045     0.341531
H     -1.978710    -0.229301     0.904265
H     -2.532520     0.470483    -0.616974
H     -0.291619     0.099643    -1.642342
H     -0.995272    -1.399394    -1.078790
H      0.406932    -1.267511     1.003678
H      1.312010    -1.450037    -0.481546
H      2.428963     0.197688     0.975691
H      0.973366     1.186901     1.054763
H      1.838880     1.014399    -0.473212
14
Iteration 2, Energy=-157.3083386319, |grad|=0.001832
C     -1.654785     0.320273     0.015909
C     -0.571009    -0.450647    -0.736322
C      0.689745    -0.748055     0.081425
C      1.526002     0.482124     0.429919
H     -1.311984     1.304906     0.341651
H     -1.979088    -0.229527     0.904126
H     -2.532356     0.470786    -0.617097
H     -0.291606     0.099688    -1.642224
H     -0.995315    -1.399540    -1.078836
H      0.406908    -1.267399     1.004143
H      1.312034    -1.450209    -0.481513
H      2.428919     0.197741     0.975695
H      0.973419     1.187034     1.054844
H      1.839027     1.014189    -0.473334
14
Iteration -1, Energy=-157.3083386319, |grad|=0.001832
C     -1.654785     0.320273     0.015909
C     -0.571009    -0.450647    -0.736322
C      0.689745    -0.748055     0.081425
C      1.526002     0.482124     0.429919
H     -1.311984     1.304906     0.341651
H     -1.979088    -0.229527     0.904126
H     -2.532356     0.470786    -0.617097
H     -0.291606     0.099688    -1.642224
H     -0.995315    -1.399540    -1.078836
H      0.406908    -1.267399     1.004143
H      1.312034    -1.450209    -0.481513
H      2.428919     0.197741     0.975695
H      0.973419     1.187034     1.054844
H      1.839027     1.014189    -0.473334
14
Iteration 1, Energy=-157.3083399436, |grad|=0.002217
C     -1.654591     0.320141     0.016059
C     -0.571224    -0.451083    -0.736706
C      0.689327    -0.747805     0.081768
C      1.526034     0.482382     0.429859
H     -1.311964     1.304846     0.341166
H     -1.978990    -0.229346     0.904495
H     -2.532466     0.471091    -0.617137
H     -0.291634     0.099676    -1.641803
H     -0.995154    -1.399718    -1.078974
H      0.406797    -1.267609     1.003919
H      1.312429    -1.450066    -0.481813
H      2.428706     0.197733     0.975762
H      0.973756     1.187117     1.055125
H      1.838884     1.014007    -0.473335
14
Iteration 2, Energy=-157.3083412764, |grad|=0.001698
C     -1.654649     0.319983     0.015988
C     -0.571341    -0.451257    -0.736673
C      0.689291    -0.747805     0.081651
C      1.525923     0.482476     0.429939
H     -1.311881     1.304839     0.340780
H     -1.978891    -0.229181     0.904791
H     -2.532455     0.471309    -0.617062
H     -0.291633     0.099711    -1.641586
H     -0.995084    -1.400010    -1.079156
H      0.406664    -1.267820     1.003844
H      1.312583    -1.449750    -0.481884
H      2.428556     0.197713     0.975810
H      0.974033     1.187241     1.055366
H      1.838792     1.013914    -0.473424
14
Iteration 3, Energy=-157.3083447924, |grad|=0.001107
C     -1.655051     0.319389     0.016013
C     -0.571862    -0.452309    -0.736470
C      0.689077    -0.747939     0.081548
C      1.525224     0.482579     0.430198
H     -1.311253     1.304555     0.338358
H     -1.978265    -0.227993     0.906301
H     -2.532553     0.472383    -0.616622
H     -0.291701     0.099943    -1.640558
H     -0.994641    -1.401715    -1.080256
H      0.406043    -1.268975     1.003078
H      1.313472    -1.447783    -0.482336
H      2.427765     0.197519     0.976047
H      0.975436     1.188257     1.056926
H      1.838217     1.013454    -0.473843
14
Iteration 4, Energy=-157.3083457988, |grad|=0.001607
C     -1.654995     0.319281     0.015736
C     -0.572044    -0.452620    -0.736477
C      0.688792    -0.747861     0.081560
C      1.524830     0.482878     0.430808
H     -1.310473     1.304611     0.337488
H     -1.978170    -0.227269     0.906831
H     -2.532931     0.472173    -0.616320
H     -0.291940     0.099887    -1.640500
H     -0.994301    -1.401924    -1.080527
H      0.406060    -1.269690     1.002941
H      1.313828    -1.447106    -0.482595
H      2.427644     0.197211     0.975893
H      0.975810     1.188519     1.057150
H      1.837797     1.013275    -0.473601
14
Iteration 5, Energy=-157.3083469038, |grad|=0.001215
C     -1.654972     0.319288     0.015621
C     -0.572144    -0.452722    -0.736575
C      0.688650    -0.747803     0.081666
C      1.524627     0.482847     0.431112
H     -1.309643     1.304631     0.336620
H     -1.978048    -0.226453     0.907211
H     -2.533346     0.471795    -0.616010
H     -0.292221     0.099756    -1.640523
H     -0.994015    -1.402129    -1.080762
H      0.406150    -1.270411     1.002794
H      1.314097    -1.446411    -0.482809
H      2.427555     0.196883     0.975721
H      0.975895     1.188960     1.057523
H      1.837324     1.013134    -0.473203
14
Iteration 6, Energy=-157.3083476426, |grad|=0.001668
C     -1.654900     0.319819     0.015628
C     -0.572318    -0.453060    -0.736592
C      0.688462    -0.747880     0.082113
C      1.523943     0.482672     0.431966
H     -1.308111     1.304622     0.334707
H     -1.977561    -0.224661     0.907829
H     -2.534135     0.470720    -0.615345
H     -0.292729     0.099517    -1.641042
H     -0.993607    -1.402452    -1.081048
H      0.406548    -1.271717     1.002191
H      1.314505    -1.445130    -0.483283
H      2.427589     0.196155     0.975506
H      0.975801     1.189526     1.058304
H      1.836422     1.013230    -0.472548
14
Iteration 7, Energy=-157.3083482756, |grad|=0.000848
C     -1.654866     0.319632     0.015528
C     -0.572248    -0.452868    -0.736676
C      0.688437    -0.747834     0.081976
C      1.524166     0.482671     0.431808
H     -1.308111     1.304915     0.334645
H     -1.977422    -0.224550     0.907887
H     -2.534123     0.470624    -0.615322
H     -0.292747     0.099374    -1.641026
H     -0.993741    -1.402485    -1.080942
H      0.406594    -1.271791     1.002216
H      1.314504    -1.445196    -0.483336
H      2.427533     0.196180     0.975538
H      0.975608     1.189408     1.058461
H      1.836326     1.013283    -0.472371
14
Iteration 8, Energy=-157.3083486199, |grad|=0.000841
C     -1.654785     0.319669     0.015495
C     -0.572245    -0.452851    -0.736728
C      0.688508    -0.747819     0.081841
C      1.524223     0.482668     0.431772
H     -1.308227     1.305097     0.334527
H     -1.977242    -0.224480     0.907970
H     -2.534086     0.470547    -0.615319
H     -0.292727     0.099274    -1.641062
H     -0.993875    -1.402480    -1.080807
H      0.406633    -1.271814     1.002191
H      1.314473    -1.445270    -0.483390
H      2.427509     0.196218     0.975611
H      0.975466     1.189192     1.058593
H      1.836283     1.013414    -0.472308
14
Iteration 9, Energy=-157.3083508156, |grad|=0.001875
C     -1.654197     0.320099     0.015221
C     -0.572238    -0.452899    -0.737023
C      0.688831    -0.747872     0.081084
C      1.524189     0.482662     0.432018
H     -1.308438     1.306675     0.332473
H     -1.975392    -0.222925     0.909011
H     -2.534130     0.469477    -0.614946
H     -0.292801     0.098338    -1.641609
H     -0.994794    -1.402724    -1.079872
H      0.407146    -1.272583     1.001508
H      1.314557    -1.445244    -0.484197
H      2.427275     0.196202     0.976114
H      0.974399     1.187575     1.060077
H      1.835501     1.014584    -0.471474
14
Iteration 10, Energy=-157.3083546880, |grad|=0.003208
C     -1.652936     0.321274     0.014647
C     -0.572366    -0.453395    -0.737469
C      0.689324    -0.748119     0.079736
C      1.523564     0.482519     0.433099
H     -1.308117     1.309976     0.326967
H     -1.971119    -0.218633     0.911645
H     -2.534688     0.466816    -0.613830
H     -0.293226     0.096251    -1.642998
H     -0.996397    -1.403427    -1.078096
H      0.408338    -1.274867     0.999685
H      1.315152    -1.444468    -0.486316
H      2.426672     0.195880     0.976951
H      0.972319     1.184468     1.063623
H      1.833388     1.017089    -0.469259
14
Iteration 1, Energy=-157.3083556384, |grad|=0.003227
C     -1.652804     0.321463     0.014597
C     -0.572368    -0.453452    -0.737480
C      0.689352    -0.748151     0.079605
C      1.523440     0.482499     0.433307
H     -1.308043     1.310618     0.325765
H     -1.970177    -0.217687     0.912204
H     -2.534781     0.466206    -0.613566
H     -0.293310     0.095992    -1.643232
H     -0.996483    -1.403507    -1.077901
H      0.408413    -1.275306     0.999278
H      1.315289    -1.444342    -0.486780
H      2.426572     0.195834     0.977088
H      0.971975     1.184108     1.063996
H      1.833126     1.017354    -0.468767
14
Iteration 2, Energy=-157.3083558283, |grad|=0.003596
C     -1.652632     0.321599     0.014514
C     -0.572384    -0.453503    -0.737553
C      0.689402    -0.748149     0.079425
C      1.523379     0.482494     0.433435
H     -1.307948     1.311108     0.324886
H     -1.969544    -0.217000     0.912601
H     -2.534835     0.465775    -0.613399
H     -0.293361     0.095717    -1.643425
H     -0.996671    -1.403611    -1.077706
H      0.408574    -1.275659     0.999008
H      1.315361    -1.444246    -0.487075
H      2.426499     0.195800     0.977171
H      0.971685     1.183743     1.064498
H      1.832846     1.017643    -0.468444
14
Iteration -1, Energy=-157.3083556384, |grad|=0.003227
C     -1.652804     0.321463     0.014597
C     -0.572368    -0.453452    -0.737480
C      0.689352    -0.748151     0.079605
C      1.523440     0.482499     0.433307
H     -1.308043     1.310618     0.325765
H     -1.970177    -0.217687     0.912204
H     -2.534781     0.466206    -0.613566
H     -0.293310     0.095992    -1.643232
H     -0.996483    -1.403507    -1.077901
H      0.408413    -1.275306     0.999278
H      1.315289    -1.444342    -0.486780
H      2.426572     0.195834     0.977088
H      0.971975     1.184108     1.063996
H      1.833126     1.017354    -0.468767
14
Iteration 1, Energy=-157.3083575384, |grad|=0.000964
C     -1.652787     0.321856     0.014799
C     -0.572332    -0.453667    -0.737329
C      0.689294    -0.748455     0.079964
C      1.522905     0.482453     0.433684
H     -1.308122     1.310391     0.325642
H     -1.970084    -0.217623     0.912150
H     -2.534872     0.466191    -0.613597
H     -0.293327     0.096033    -1.643404
H     -0.996388    -1.403430    -1.077883
H      0.408473    -1.275102     0.999011
H      1.315391    -1.444365    -0.486924
H      2.426663     0.195846     0.977015
H      0.972145     1.183972     1.063822
H      1.833244     1.017531    -0.468838
14
Iteration 2, Energy=-157.3083578009, |grad|=0.000706
C     -1.652844     0.321869     0.014788
C     -0.572290    -0.453639    -0.737237
C      0.689306    -0.748576     0.079956
C      1.522824     0.482327     0.433683
H     -1.308112     1.310420     0.325599
H     -1.970009    -0.217543     0.912140
H     -2.534908     0.466186    -0.613579
H     -0.293354     0.095987    -1.643438
H     -0.996352    -1.403432    -1.077874
H      0.408454    -1.275079     0.999007
H      1.315463    -1.444350    -0.486997
H      2.426641     0.195887     0.976925
H      0.972138     1.184006     1.063837
H      1.833244     1.017567    -0.468697
14
Iteration 3, Energy=-157.3083582857, |grad|=0.000495
C     -1.652877     0.321991     0.014719
C     -0.572253    -0.453633    -0.737124
C      0.689365    -0.748887     0.079858
C      1.522544     0.482023     0.433739
H     -1.308099     1.310554     0.325393
H     -1.969737    -0.217232     0.912210
H     -2.535110     0.466157    -0.613538
H     -0.293466     0.095743    -1.643472
H     -0.996174    -1.403373    -1.077786
H      0.408357    -1.275110     0.999086
H      1.315772    -1.444336    -0.487321
H      2.426572     0.196016     0.976577
H      0.972113     1.184032     1.063874
H      1.833194     1.017686    -0.468100
14
Iteration 4, Energy=-157.3083585333, |grad|=0.000786
C     -1.652889     0.322025     0.014595
C     -0.572221    -0.453638    -0.737122
C      0.689315    -0.749021     0.079838
C      1.522425     0.482030     0.433928
H     -1.308067     1.310829     0.325122
H     -1.969476    -0.216881     0.912374
H     -2.535208     0.466087    -0.613425
H     -0.293517     0.095526    -1.643552
H     -0.996149    -1.403502    -1.077714
H      0.408332    -1.275271     0.999024
H      1.315986    -1.444316    -0.487582
H      2.426606     0.196009     0.976399
H      0.971984     1.183883     1.063990
H      1.833079     1.017871    -0.467763
14
Iteration 5, Energy=-157.3083590136, |grad|=0.000886
C     -1.652782     0.322226     0.014480
C     -0.572255    -0.453782    -0.737177
C      0.689369    -0.749174     0.079736
C      1.522263     0.481976     0.434183
H     -1.308047     1.311256     0.324535
H     -1.968989    -0.216217     0.912696
H     -2.535418     0.465937    -0.613242
H     -0.293577     0.095146    -1.643735
H     -0.996119    -1.403723    -1.077559
H      0.408293    -1.275642     0.998892
H      1.316275    -1.444198    -0.487976
H      2.426700     0.195964     0.976156
H      0.971667     1.183625     1.064329
H      1.832823     1.018236    -0.467203
14
Iteration 6, Energy=-157.3083607667, |grad|=0.001700
C     -1.652303     0.323070     0.014061
C     -0.572227    -0.454240    -0.737503
C      0.689654    -0.749804     0.079198
C      1.521478     0.481760     0.435182
H     -1.307847     1.313143     0.321499
H     -1.966723    -0.213092     0.914199
H     -2.536170     0.465113    -0.612327
H     -0.293836     0.093336    -1.644563
H     -0.996260    -1.404780    -1.076753
H      0.408438    -1.277364     0.997806
H      1.317174    -1.443371    -0.489375
H      2.427069     0.195707     0.975523
H      0.970299     1.182152     1.066254
H      1.831455     1.020001    -0.465088
14
Iteration 7, Energy=-157.3083626284, |grad|=0.003123
C     -1.650971     0.324859     0.013011
C     -0.572574    -0.455888    -0.737595
C      0.689846    -0.750313     0.078100
C      1.520331     0.481202     0.437405
H     -1.307248     1.317204     0.314629
H     -1.961804    -0.206418     0.917562
H     -2.537625     0.463142    -0.610364
H     -0.294214     0.089764    -1.646869
H     -0.996725    -1.406696    -1.074833
H      0.409039    -1.281180     0.995183
H      1.319129    -1.441805    -0.492419
H      2.427360     0.195251     0.974456
H      0.967439     1.178668     1.070820
H      1.828218     1.023841    -0.460972
14
Iteration 8, Energy=-157.3083658228, |grad|=0.001866
C     -1.650390     0.325562     0.012868
C     -0.572646    -0.456115    -0.738042
C      0.690203    -0.750558     0.077584
C      1.519687     0.481326     0.438074
H     -1.306855     1.318644     0.311592
H     -1.959853    -0.203792     0.918860
H     -2.538022     0.462184    -0.609648
H     -0.294415     0.088261    -1.647584
H     -0.997209    -1.407476    -1.073949
H      0.409563    -1.282700     0.993911
H      1.319472    -1.440974    -0.493299
H      2.427411     0.194980     0.974564
H      0.966543     1.176966     1.072929
H      1.826714     1.025322    -0.459746
14
Iteration 9, Energy=-157.3083710262, |grad|=0.002161
C     -1.648791     0.327539     0.012222
C     -0.572845    -0.457060    -0.738825
C      0.690867    -0.750933     0.076095
C      1.518094     0.481315     0.439988
H     -1.305532     1.322638     0.302931
H     -1.954350    -0.196587     0.922539
H     -2.538965     0.459331    -0.607673
H     -0.295007     0.084269    -1.649819
H     -0.998678    -1.409295    -1.071316
H      0.411251    -1.286829     0.990306
H      1.320512    -1.438812    -0.495896
H      2.427080     0.194407     0.974976
H      0.964219     1.172174     1.079119
H      1.822345     1.029472    -0.456534
14
Iteration 10, Energy=-157.3083752631, |grad|=0.002395
C     -1.646961     0.329579     0.011324
C     -0.573105    -0.458203    -0.739283
C      0.691379    -0.751582     0.074479
C      1.516185     0.481085     0.442130
H     -1.303760     1.327160     0.293361
H     -1.948097    -0.188728     0.926456
H     -2.540065     0.456008    -0.605740
H     -0.295900     0.080081    -1.652364
H     -1.000359    -1.410941    -1.068262
H      0.413181    -1.291082     0.986748
H      1.322039    -1.436726    -0.499366
H      2.426375     0.193951     0.975247
H      0.961889     1.167099     1.086041
H      1.817402     1.033930    -0.452655
14
Iteration 1, Energy=-157.3083753084, |grad|=0.002374
C     -1.646959     0.329766     0.011243
C     -0.573129    -0.458289    -0.739330
C      0.691392    -0.751637     0.074471
C      1.515991     0.481086     0.442359
H     -1.303759     1.327614     0.292825
H     -1.947543    -0.188024     0.926804
H     -2.540175     0.455996    -0.605584
H     -0.295906     0.079777    -1.652374
H     -1.000360    -1.411068    -1.068251
H      0.413180    -1.291415     0.986591
H      1.322186    -1.436705    -0.499755
H      2.426313     0.193947     0.975299
H      0.961653     1.167079     1.086420
H      1.817105     1.034253    -0.452240
14
Iteration 2, Energy=-157.3083747712, |grad|=0.002357
C     -1.647095     0.329789     0.011210
C     -0.573133    -0.458300    -0.739306
C      0.691333    -0.751657     0.074604
C      1.515931     0.481090     0.442475
H     -1.303902     1.327764     0.293144
H     -1.947447    -0.187880     0.926880
H     -2.540303     0.456282    -0.605533
H     -0.295838     0.079811    -1.652250
H     -1.000104    -1.411069    -1.068506
H      0.412957    -1.291441     0.986805
H      1.322257    -1.436813    -0.499959
H      2.426349     0.193959     0.975266
H      0.961573     1.167496     1.086111
H      1.817278     1.034203    -0.452034
14
Iteration -1, Energy=-157.3083747712, |grad|=0.002357
C     -1.647095     0.329789     0.011210
C     -0.573133    -0.458300    -0.739306
C      0.691333    -0.751657     0.074604
C      1.515931     0.481090     0.442475
H     -1.303902     1.327764     0.293144
H     -1.947447    -0.187880     0.926880
H     -2.540303     0.456282    -0.605533
H     -0.295838     0.079811    -1.652250
H     -1.000104    -1.411069    -1.068506
H      0.412957    -1.291441     0.986805
H      1.322257    -1.436813    -0.499959
H      2.426349     0.193959     0.975266
H      0.961573     1.167496     1.086111
H      1.817278     1.034203    -0.452034
14
Iteration 1, Energy=-157.3083761971, |grad|=0.001838
C     -1.646985     0.329946     0.010953
C     -0.573149    -0.458463    -0.738796
C      0.691137    -0.751726     0.074411
C      1.516119     0.480881     0.442688
H     -1.303683     1.327624     0.292993
H     -1.947402    -0.188050     0.926841
H     -2.540152     0.456055    -0.605598
H     -0.295948     0.080110    -1.652454
H     -1.000302    -1.410831    -1.068373
H      0.413133    -1.291241     0.986970
H      1.322296    -1.436833    -0.500102
H      2.425917     0.194127     0.975197
H      0.961737     1.167487     1.086251
H      1.817138     1.034145    -0.452073
14
Iteration 2, Energy=-157.3083771694, |grad|=0.001497
C     -1.646919     0.329923     0.010960
C     -0.573133    -0.458369    -0.738771
C      0.691133    -0.751810     0.074423
C      1.515990     0.480834     0.442646
H     -1.303455     1.327566     0.292855
H     -1.947338    -0.188126     0.926706
H     -2.540043     0.455855    -0.605719
H     -0.296109     0.080241    -1.652409
H     -1.000514    -1.410663    -1.068238
H      0.413303    -1.291066     0.987097
H      1.322293    -1.436842    -0.500234
H      2.425738     0.194188     0.975260
H      0.961907     1.167448     1.086373
H      1.817003     1.034055    -0.452043
14
Iteration 3, Energy=-157.3083789101, |grad|=0.002093
C     -1.646478     0.329931     0.010778
C     -0.573218    -0.458257    -0.738959
C      0.691409    -0.751723     0.074162
C      1.515271     0.480537     0.442505
H     -1.302024     1.327396     0.292025
H     -1.946947    -0.188734     0.926193
H     -2.539183     0.454574    -0.606551
H     -0.297092     0.081044    -1.651936
H     -1.001962    -1.409608    -1.067435
H      0.414271    -1.290324     0.988168
H      1.322090    -1.436843    -0.500934
H      2.424995     0.194307     0.975772
H      0.962596     1.167271     1.087285
H      1.816127     1.033664    -0.452165
14
Iteration 4, Energy=-157.3083791470, |grad|=0.001872
C     -1.646293     0.329739     0.010964
C     -0.573099    -0.457942    -0.738685
C      0.690973    -0.752177     0.074559
C      1.515538     0.480936     0.442555
H     -1.301725     1.327436     0.291808
H     -1.946768    -0.188747     0.926008
H     -2.539001     0.454343    -0.606867
H     -0.297277     0.081238    -1.651966
H     -1.002477    -1.409779    -1.067440
H      0.414616    -1.290025     0.987939
H      1.322052    -1.436801    -0.501065
H      2.424886     0.194204     0.975811
H      0.962546     1.167152     1.087479
H      1.815884     1.033657    -0.452193
14
Iteration 5, Energy=-157.3083797312, |grad|=0.000317
C     -1.646433     0.329852     0.010923
C     -0.573172    -0.458153    -0.738766
C      0.691176    -0.751942     0.074410
C      1.515497     0.480802     0.442575
H     -1.302043     1.327440     0.291988
H     -1.946869    -0.188647     0.926169
H     -2.539141     0.454603    -0.606648
H     -0.297065     0.081051    -1.652014
H     -1.002103    -1.409857    -1.067560
H      0.414344    -1.290286     0.987897
H      1.322063    -1.436794    -0.500891
H      2.425084     0.194194     0.975723
H      0.962429     1.167213     1.087292
H      1.816088     1.033758    -0.452189
14
Iteration 6, Energy=-157.3083797690, |grad|=0.000256
C     -1.646425     0.329862     0.010926
C     -0.573186    -0.458179    -0.738757
C      0.691187    -0.751917     0.074412
C      1.515501     0.480808     0.442587
H     -1.302029     1.327447     0.291959
H     -1.946842    -0.188633     0.926184
H     -2.539088     0.454589    -0.606681
H     -0.297075     0.081047    -1.651998
H     -1.002153    -1.409868    -1.067569
H      0.414363    -1.290306     0.987892
H      1.322045    -1.436775    -0.500881
H      2.425110     0.194166     0.975708
H      0.962388     1.167195     1.087317
H      1.816059     1.033796    -0.452191
