14
Iteration 0, Energy=-157.1975670744, |grad|=0.608358
C     -1.696988     0.362703     0.016289
C     -0.500326    -0.495554    -0.762883
C      0.648777    -0.625643     0.039120
C      1.542206     0.560162     0.492103
H     -0.891526     0.811676     0.792323
H     -2.492025    -0.270322     0.454100
H     -2.113865     1.008321    -0.712652
H     -0.493179    -0.283247    -1.809260
H     -1.072467    -1.581967    -0.827917
H      0.381313    -1.088993     1.044971
H      1.411071    -1.525331    -0.470382
H      2.626813     0.523942     0.783611
H      0.939965     1.063048     1.258608
H      1.549488     1.071967    -0.520914
14
Iteration 1, Energy=-157.2548488766, |grad|=0.314848
C     -1.658899     0.314989     0.011712
C     -0.593980    -0.486766    -0.756041
C      0.752296    -0.711625     0.053148
C      1.537785     0.602642     0.443481
H     -0.921291     0.823427     0.794948
H     -2.472923    -0.257204     0.453684
H     -2.123217     1.034793    -0.721454
H     -0.478530    -0.268364    -1.824230
H     -1.063930    -1.584872    -0.824351
H      0.371000    -1.105055     1.049570
H      1.380994    -1.488006    -0.448774
H      2.603402     0.504381     0.783050
H      0.952801     1.072004     1.254099
H      1.553750     1.080418    -0.491724
14
Iteration 2, Energy=-157.2774031098, |grad|=0.151244
C     -1.625531     0.337884     0.007064
C     -0.609275    -0.541402    -0.750417
C      0.751259    -0.722610     0.070588
C      1.535013     0.581740     0.444877
H     -0.962288     0.821485     0.780946
H     -2.465034    -0.257132     0.457120
H     -2.118239     1.034778    -0.705938
H     -0.473450    -0.257018    -1.821392
H     -1.048727    -1.562008    -0.824250
H      0.378719    -1.111970     1.036375
H      1.372540    -1.475265    -0.440865
H      2.586166     0.495954     0.780216
H      0.961938     1.079012     1.243672
H      1.556166     1.107316    -0.500879
14
Iteration 3, Energy=-157.2874388850, |grad|=0.136625
C     -1.605960     0.338810     0.003272
C     -0.609009    -0.582450    -0.750224
C      0.738913    -0.732384     0.086816
C      1.518552     0.561397     0.422848
H     -1.018597     0.827497     0.764604
H     -2.435907    -0.243400     0.455910
H     -2.106284     1.038782    -0.683622
H     -0.465488    -0.246619    -1.801369
H     -1.034181    -1.548262    -0.824309
H      0.390691    -1.129143     1.025390
H      1.365334    -1.462198    -0.429450
H      2.565251     0.477767     0.777787
H      0.976311     1.090264     1.226797
H      1.559632     1.140702    -0.497333
14
Iteration 4, Energy=-157.2936815052, |grad|=0.093420
C     -1.595040     0.328784    -0.013845
C     -0.599782    -0.582040    -0.741230
C      0.728890    -0.737337     0.085637
C      1.503947     0.550323     0.410539
H     -1.060316     0.841893     0.761134
H     -2.413070    -0.234730     0.457361
H     -2.094154     1.043283    -0.665704
H     -0.455410    -0.240210    -1.781130
H     -1.030545    -1.561095    -0.827370
H      0.399309    -1.149900     1.026468
H      1.361714    -1.454310    -0.419501
H      2.542629     0.456658     0.772461
H      0.989255     1.099626     1.207374
H      1.561828     1.169818    -0.495075
14
Iteration 5, Energy=-157.2980832619, |grad|=0.078789
C     -1.594587     0.314805    -0.022758
C     -0.582272    -0.594992    -0.729782
C      0.701665    -0.729422     0.083055
C      1.488054     0.561035     0.377024
H     -1.118073     0.881799     0.770951
H     -2.381327    -0.233021     0.460335
H     -2.077009     1.058870    -0.655812
H     -0.425682    -0.228301    -1.747051
H     -1.020604    -1.579768    -0.835549
H      0.415905    -1.193973     1.037509
H      1.368106    -1.457362    -0.413879
H      2.500741     0.404715     0.757777
H      1.001793     1.119508     1.175747
H      1.562547     1.206868    -0.480451
14
Iteration 6, Energy=-157.2998370584, |grad|=0.044064
C     -1.596730     0.324750    -0.018581
C     -0.582586    -0.585947    -0.726467
C      0.709967    -0.738363     0.081598
C      1.477235     0.559641     0.383313
H     -1.126683     0.893745     0.775520
H     -2.385340    -0.243560     0.465129
H     -2.072817     1.059757    -0.661507
H     -0.410754    -0.225632    -1.738750
H     -1.019409    -1.590212    -0.839862
H      0.424116    -1.202494     1.038643
H      1.366007    -1.454128    -0.411298
H      2.492971     0.383779     0.750325
H      1.000170     1.129048     1.168377
H      1.563110     1.220379    -0.489322
14
Iteration 7, Energy=-157.3006470832, |grad|=0.030880
C     -1.601574     0.329528    -0.012376
C     -0.586162    -0.583330    -0.720456
C      0.712569    -0.740572     0.084612
C      1.475864     0.561060     0.381549
H     -1.127188     0.903241     0.781347
H     -2.390637    -0.251808     0.467485
H     -2.072191     1.059881    -0.670214
H     -0.397788    -0.222676    -1.736607
H     -1.017749    -1.592212    -0.843223
H      0.431227    -1.206657     1.038409
H      1.367934    -1.454732    -0.413346
H      2.488443     0.368662     0.744337
H      0.994078     1.137839     1.168176
H      1.562428     1.222538    -0.492577
14
Iteration 8, Energy=-157.3013175171, |grad|=0.027428
C     -1.610506     0.333729    -0.000502
C     -0.589889    -0.582655    -0.714467
C      0.713038    -0.740624     0.087316
C      1.469479     0.566618     0.382304
H     -1.131814     0.918595     0.788830
H     -2.398137    -0.260045     0.468991
H     -2.072533     1.054782    -0.684048
H     -0.373939    -0.217248    -1.723616
H     -1.013987    -1.585618    -0.848794
H      0.447141    -1.214326     1.041556
H      1.371050    -1.453325    -0.419262
H      2.482111     0.342125     0.733573
H      0.986404     1.149640     1.162365
H      1.560839     1.219116    -0.497127
14
Iteration 9, Energy=-157.3016934121, |grad|=0.031067
C     -1.611728     0.335671     0.000269
C     -0.588243    -0.578091    -0.702881
C      0.710271    -0.741105     0.092091
C      1.471694     0.561791     0.376302
H     -1.139818     0.926509     0.790348
H     -2.405565    -0.261472     0.469997
H     -2.074948     1.043364    -0.690091
H     -0.356417    -0.209676    -1.711310
H     -1.014041    -1.577371    -0.854128
H      0.462452    -1.218322     1.044138
H      1.371517    -1.446082    -0.425457
H      2.475226     0.327152     0.726071
H      0.979650     1.159319     1.161208
H      1.559207     1.209074    -0.499439
14
Iteration 10, Energy=-157.3020072494, |grad|=0.021922
C     -1.613255     0.333044     0.001496
C     -0.586555    -0.577085    -0.698971
C      0.709684    -0.740352     0.094502
C      1.469422     0.559927     0.378265
H     -1.144028     0.928151     0.789132
H     -2.407353    -0.258195     0.468760
H     -2.078182     1.036548    -0.692746
H     -0.349834    -0.204881    -1.704381
H     -1.014965    -1.570338    -0.856295
H      0.469831    -1.219267     1.046775
H      1.370702    -1.441207    -0.429526
H      2.475432     0.323651     0.724447
H      0.979590     1.159668     1.158061
H      1.558768     1.201099    -0.502403
14
Iteration 11, Energy=-157.3024695965, |grad|=0.017363
C     -1.616716     0.330315     0.001682
C     -0.581463    -0.571951    -0.691810
C      0.710225    -0.741044     0.101736
C      1.467684     0.556164     0.381562
H     -1.157631     0.932177     0.784531
H     -2.413770    -0.250854     0.467400
H     -2.088617     1.016527    -0.699568
H     -0.333608    -0.188533    -1.683215
H     -1.019364    -1.554651    -0.862894
H      0.489330    -1.224311     1.057558
H      1.367352    -1.426546    -0.441319
H      2.476619     0.318586     0.722999
H      0.981515     1.158747     1.149916
H      1.557699     1.176136    -0.511462
14
Iteration 12, Energy=-157.3026731172, |grad|=0.021561
C     -1.620755     0.326556     0.001200
C     -0.581815    -0.569565    -0.683140
C      0.711484    -0.742917     0.108120
C      1.468793     0.549883     0.382161
H     -1.168601     0.939632     0.782979
H     -2.415788    -0.249067     0.468386
H     -2.097392     1.008511    -0.706948
H     -0.322626    -0.172839    -1.672689
H     -1.021927    -1.549651    -0.868875
H      0.500661    -1.231861     1.065346
H      1.366262    -1.419758    -0.448758
H      2.478159     0.317971     0.725235
H      0.984530     1.159837     1.145341
H      1.558270     1.164029    -0.521243
14
Iteration 13, Energy=-157.3028923940, |grad|=0.015808
C     -1.626286     0.328319     0.000603
C     -0.581139    -0.566626    -0.679395
C      0.712573    -0.748026     0.114674
C      1.471903     0.547468     0.380650
H     -1.178828     0.946665     0.780346
H     -2.418454    -0.250364     0.471182
H     -2.105751     1.001397    -0.713360
H     -0.315322    -0.158009    -1.661880
H     -1.024029    -1.547471    -0.874833
H      0.509524    -1.239730     1.071674
H      1.365152    -1.415620    -0.454859
H      2.481906     0.320706     0.729837
H      0.988544     1.160264     1.141702
H      1.559464     1.151789    -0.529225
14
Iteration 14, Energy=-157.3030716802, |grad|=0.024579
C     -1.635079     0.333452    -0.000810
C     -0.583473    -0.565145    -0.674256
C      0.716187    -0.753816     0.118042
C      1.481623     0.541572     0.379634
H     -1.198538     0.962385     0.773891
H     -2.421665    -0.257489     0.479122
H     -2.120372     0.992484    -0.722621
H     -0.307172    -0.133908    -1.643149
H     -1.022870    -1.542852    -0.886135
H      0.519942    -1.257555     1.080741
H      1.362533    -1.416017    -0.459872
H      2.487316     0.329975     0.738732
H      0.996985     1.163212     1.134602
H      1.563837     1.134463    -0.540802
14
Iteration 15, Energy=-157.3032190531, |grad|=0.013411
C     -1.639746     0.332800     0.000174
C     -0.583243    -0.560203    -0.673208
C      0.716246    -0.757657     0.122255
C      1.483443     0.541939     0.377834
H     -1.202625     0.968852     0.771770
H     -2.421465    -0.260879     0.482085
H     -2.125257     0.991049    -0.725175
H     -0.307775    -0.128822    -1.639378
H     -1.021399    -1.543224    -0.890182
H      0.520976    -1.261151     1.077111
H      1.362267    -1.421082    -0.459692
H      2.491847     0.334064     0.742347
H      0.999128     1.164912     1.132792
H      1.566860     1.130165    -0.541617
14
Iteration 16, Energy=-157.3032971768, |grad|=0.011288
C     -1.641546     0.332587     0.001301
C     -0.582762    -0.559123    -0.672157
C      0.716261    -0.757586     0.121716
C      1.484212     0.541924     0.378321
H     -1.204250     0.972065     0.770051
H     -2.420889    -0.262718     0.483658
H     -2.127257     0.989677    -0.724837
H     -0.309063    -0.128041    -1.638928
H     -1.019098    -1.541320    -0.891938
H      0.519968    -1.262350     1.073709
H      1.361642    -1.425562    -0.457811
H      2.493527     0.335549     0.742960
H      0.999348     1.166469     1.131441
H      1.569164     1.129192    -0.540370
14
Iteration 17, Energy=-157.3034619024, |grad|=0.011615
C     -1.646872     0.330177     0.005714
C     -0.580601    -0.551376    -0.668164
C      0.719164    -0.758291     0.121125
C      1.489012     0.538544     0.380793
H     -1.216668     0.988591     0.762678
H     -2.420321    -0.269244     0.491789
H     -2.140780     0.977352    -0.726537
H     -0.308328    -0.117325    -1.631362
H     -1.011394    -1.530954    -0.901316
H      0.520189    -1.270588     1.066913
H      1.357044    -1.438334    -0.453287
H      2.499256     0.338245     0.745461
H      0.999968     1.173773     1.123608
H      1.579589     1.120192    -0.540297
14
Iteration 18, Energy=-157.3034851633, |grad|=0.031103
C     -1.655133     0.330120     0.006058
C     -0.576252    -0.548413    -0.662231
C      0.718765    -0.759849     0.125982
C      1.496507     0.536197     0.382032
H     -1.233576     1.007369     0.753673
H     -2.415660    -0.274711     0.503644
H     -2.161353     0.954415    -0.726415
H     -0.305447    -0.094283    -1.627736
H     -1.004583    -1.516986    -0.912350
H      0.518673    -1.278802     1.065416
H      1.352044    -1.449210    -0.452674
H      2.507914     0.341401     0.753158
H      1.002987     1.177063     1.111935
H      1.594371     1.106453    -0.543374
14
Iteration 19, Energy=-157.3036301244, |grad|=0.013560
C     -1.653149     0.328895     0.007940
C     -0.576028    -0.544928    -0.663984
C      0.720171    -0.759862     0.124669
C      1.496770     0.534582     0.382155
H     -1.234137     1.007303     0.753349
H     -2.415957    -0.274493     0.503992
H     -2.162547     0.953417    -0.727805
H     -0.304110    -0.094765    -1.625373
H     -1.005165    -1.517115    -0.912672
H      0.519260    -1.278465     1.066994
H      1.351236    -1.447215    -0.452444
H      2.506465     0.339199     0.752232
H      1.001891     1.178027     1.112022
H      1.594558     1.106181    -0.543959
14
Iteration 20, Energy=-157.3037391399, |grad|=0.009773
C     -1.652655     0.327393     0.009434
C     -0.574584    -0.539800    -0.665722
C      0.721480    -0.760386     0.124939
C      1.499452     0.532222     0.382304
H     -1.239230     1.012710     0.750344
H     -2.413150    -0.276161     0.509396
H     -2.171496     0.943638    -0.728767
H     -0.301982    -0.087445    -1.623263
H     -1.004042    -1.513329    -0.916137
H      0.517326    -1.278712     1.069253
H      1.348680    -1.447585    -0.451871
H      2.507351     0.336520     0.754550
H      1.001512     1.179100     1.108279
H      1.600594     1.102599    -0.545623
14
Iteration 21, Energy=-157.3039320506, |grad|=0.018785
C     -1.653731     0.324267     0.012312
C     -0.570668    -0.528345    -0.669102
C      0.722818    -0.761188     0.126467
C      1.507415     0.526988     0.382060
H     -1.252573     1.028832     0.741389
H     -2.403086    -0.282490     0.525991
H     -2.197135     0.916235    -0.730170
H     -0.297663    -0.065983    -1.620281
H     -0.999793    -1.502369    -0.926306
H      0.509559    -1.278287     1.073148
H      1.342486    -1.451821    -0.449719
H      2.511127     0.330520     0.762931
H      1.001502     1.181340     1.097480
H      1.618998     1.093064    -0.549083
14
Iteration 22, Energy=-157.3042377123, |grad|=0.028862
C     -1.658242     0.320102     0.016362
C     -0.565339    -0.510276    -0.674363
C      0.722919    -0.761100     0.127875
C      1.520571     0.519069     0.381236
H     -1.272773     1.056469     0.724267
H     -2.381527    -0.296508     0.557361
H     -2.241874     0.869202    -0.731619
H     -0.291149    -0.029830    -1.616471
H     -0.991906    -1.483465    -0.944823
H      0.493324    -1.273110     1.077081
H      1.332977    -1.460762    -0.444713
H      2.516971     0.319248     0.779501
H      1.002808     1.184283     1.079098
H      1.652499     1.077441    -0.553674
14
Iteration 23, Energy=-157.3048374459, |grad|=0.046745
C     -1.671656     0.312815     0.024327
C     -0.556901    -0.471032    -0.688486
C      0.719440    -0.756751     0.127408
C      1.549126     0.503056     0.378424
H     -1.313304     1.114624     0.678254
H     -2.321950    -0.332435     0.633213
H     -2.341082     0.761909    -0.729522
H     -0.277486     0.047190    -1.607181
H     -0.974738    -1.440450    -0.988993
H      0.452578    -1.249741     1.081452
H      1.312612    -1.480281    -0.430459
H      2.523750     0.287977     0.819633
H      1.008164     1.190303     1.039644
H      1.730702     1.043579    -0.560598
14
Iteration 24, Energy=-157.3055396593, |grad|=0.049940
C     -1.683965     0.302803     0.024108
C     -0.558807    -0.445671    -0.698556
C      0.713218    -0.748410     0.120569
C      1.562759     0.494415     0.376200
H     -1.334190     1.143622     0.638976
H     -2.262905    -0.353346     0.685208
H     -2.399108     0.688655    -0.714808
H     -0.270347     0.094205    -1.605806
H     -0.967748    -1.416105    -1.020909
H      0.419285    -1.217907     1.083723
H      1.299237    -1.487579    -0.417723
H      2.519345     0.259315     0.851434
H      1.017398     1.191674     1.017080
H      1.785085     1.025092    -0.562380
14
Iteration 25, Energy=-157.3065295800, |grad|=0.040421
C     -1.693594     0.291285     0.029373
C     -0.563242    -0.424275    -0.720503
C      0.690451    -0.727689     0.116627
C      1.582905     0.483744     0.371091
H     -1.362427     1.172193     0.569996
H     -2.167692    -0.382569     0.759005
H     -2.474774     0.590260    -0.685314
H     -0.265794     0.152832    -1.601736
H     -0.959464    -1.378827    -1.069564
H      0.375056    -1.159930     1.076809
H      1.281705    -1.498001    -0.399922
H      2.500497     0.214490     0.897395
H      1.035389     1.198159     0.992249
H      1.860243     0.999091    -0.558388
14
Iteration 26, Energy=-157.3067529546, |grad|=0.043192
C     -1.697836     0.281930     0.024122
C     -0.566461    -0.433650    -0.714381
C      0.686018    -0.726872     0.111597
C      1.572153     0.491829     0.373045
H     -1.357504     1.165758     0.561095
H     -2.156416    -0.376282     0.750432
H     -2.455600     0.602810    -0.669375
H     -0.273235     0.140310    -1.599576
H     -0.963259    -1.383461    -1.076923
H      0.383142    -1.153228     1.065969
H      1.279153    -1.495517    -0.395952
H      2.490119     0.213783     0.896976
H      1.045958     1.206038     1.000772
H      1.853026     0.997313    -0.550686
14
Iteration 27, Energy=-157.3070712527, |grad|=0.034818
C     -1.704232     0.275564     0.026557
C     -0.563372    -0.421121    -0.714953
C      0.684896    -0.725559     0.110327
C      1.579619     0.487419     0.374257
H     -1.375197     1.190786     0.539429
H     -2.132541    -0.389071     0.777455
H     -2.490623     0.564870    -0.664952
H     -0.270602     0.168593    -1.593296
H     -0.956120    -1.366340    -1.099064
H      0.372595    -1.147761     1.062990
H      1.269225    -1.505779    -0.388953
H      2.491846     0.204333     0.912075
H      1.052164     1.214151     0.986913
H      1.881599     0.980677    -0.551668
14
Iteration 28, Energy=-157.3072949338, |grad|=0.020146
C     -1.700794     0.281476     0.029539
C     -0.564111    -0.421522    -0.718572
C      0.688389    -0.723712     0.110091
C      1.579452     0.484088     0.376877
H     -1.378330     1.192666     0.535367
H     -2.130022    -0.391270     0.783216
H     -2.499517     0.556293    -0.665658
H     -0.270158     0.173849    -1.592403
H     -0.954167    -1.362631    -1.105001
H      0.371069    -1.150713     1.067893
H      1.267451    -1.506179    -0.389396
H      2.490736     0.201649     0.913266
H      1.052956     1.219893     0.985022
H      1.886304     0.976875    -0.553124
14
Iteration 29, Energy=-157.3074072898, |grad|=0.012822
C     -1.700000     0.279646     0.030024
C     -0.563480    -0.420488    -0.719841
C      0.686770    -0.724052     0.111802
C      1.579380     0.484571     0.377465
H     -1.379346     1.194516     0.532152
H     -2.126666    -0.390258     0.784918
H     -2.502122     0.552723    -0.663616
H     -0.270939     0.175528    -1.591069
H     -0.954342    -1.361962    -1.110045
H      0.372414    -1.151433     1.068361
H      1.266487    -1.505750    -0.389854
H      2.488403     0.199866     0.914221
H      1.054975     1.224370     0.985030
H      1.887720     0.973484    -0.552431
14
Iteration 30, Energy=-157.3076064576, |grad|=0.010961
C     -1.698006     0.273750     0.029125
C     -0.564087    -0.417592    -0.725552
C      0.680834    -0.722931     0.114268
C      1.577796     0.485716     0.380680
H     -1.383128     1.201226     0.515196
H     -2.106265    -0.388739     0.797900
H     -2.515120     0.532266    -0.651940
H     -0.273236     0.186047    -1.588487
H     -0.954562    -1.357038    -1.131577
H      0.372287    -1.149457     1.072128
H      1.261645    -1.502434    -0.389524
H      2.478140     0.188936     0.922138
H      1.064729     1.240384     0.983226
H      1.898230     0.960628    -0.550465
14
Iteration 31, Energy=-157.3076814250, |grad|=0.010844
C     -1.698694     0.271883     0.029347
C     -0.564605    -0.419289    -0.728817
C      0.677050    -0.722637     0.117398
C      1.576125     0.486100     0.382433
H     -1.382041     1.203514     0.508744
H     -2.098635    -0.384210     0.804029
H     -2.521052     0.521545    -0.646933
H     -0.273060     0.192897    -1.590746
H     -0.953951    -1.354247    -1.141169
H      0.372464    -1.154646     1.076654
H      1.261351    -1.497165    -0.391102
H      2.474149     0.184125     0.926817
H      1.069377     1.248839     0.981116
H      1.900778     0.954055    -0.550655
14
Iteration 32, Energy=-157.3077201952, |grad|=0.009706
C     -1.699527     0.272135     0.027367
C     -0.566767    -0.414741    -0.732486
C      0.673374    -0.721718     0.118042
C      1.575688     0.485329     0.384745
H     -1.380995     1.204950     0.497919
H     -2.086605    -0.383209     0.816527
H     -2.530042     0.506911    -0.640470
H     -0.272967     0.199552    -1.590890
H     -0.952828    -1.351564    -1.151922
H      0.368422    -1.155656     1.077790
H      1.261128    -1.491736    -0.390113
H      2.468977     0.178069     0.934286
H      1.074577     1.255002     0.976943
H      1.906822     0.947438    -0.550623
14
Iteration 33, Energy=-157.3077491574, |grad|=0.005511
C     -1.699635     0.272325     0.028021
C     -0.567508    -0.416288    -0.730964
C      0.674430    -0.721523     0.117515
C      1.574943     0.484865     0.384918
H     -1.378433     1.203086     0.500519
H     -2.090462    -0.380882     0.813592
H     -2.527141     0.511725    -0.642276
H     -0.272710     0.196370    -1.591084
H     -0.952520    -1.352666    -1.148512
H      0.369132    -1.159053     1.076414
H      1.263182    -1.490375    -0.390757
H      2.469822     0.180871     0.933036
H      1.073355     1.253698     0.977394
H      1.902802     0.948610    -0.550700
14
Iteration 34, Energy=-157.3077752954, |grad|=0.005290
C     -1.701178     0.272183     0.029013
C     -0.567801    -0.416281    -0.729990
C      0.674621    -0.721132     0.117077
C      1.575074     0.483743     0.385297
H     -1.376808     1.204214     0.498601
H     -2.089905    -0.378881     0.816171
H     -2.529867     0.510369    -0.642756
H     -0.272023     0.196866    -1.589953
H     -0.950710    -1.351158    -1.148163
H      0.367297    -1.163228     1.072824
H      1.265238    -1.488628    -0.390880
H      2.470282     0.182555     0.935311
H      1.072837     1.253815     0.975198
H      1.902200     0.946326    -0.550633
14
Iteration 35, Energy=-157.3077953918, |grad|=0.005362
C     -1.700425     0.273775     0.028748
C     -0.567539    -0.418252    -0.728115
C      0.674982    -0.722267     0.117433
C      1.573179     0.484167     0.386834
H     -1.372358     1.202420     0.499477
H     -2.094280    -0.374090     0.815380
H     -2.527150     0.515370    -0.643448
H     -0.272140     0.192989    -1.588976
H     -0.950045    -1.353249    -1.145290
H      0.368038    -1.171181     1.068958
H      1.269493    -1.484989    -0.393571
H      2.470122     0.186577     0.935218
H      1.070920     1.254454     0.975184
H      1.896459     0.945039    -0.550714
14
Iteration 36, Energy=-157.3078123005, |grad|=0.008514
C     -1.700442     0.273480     0.029058
C     -0.567911    -0.417582    -0.729054
C      0.676453    -0.723838     0.117008
C      1.571367     0.483381     0.388808
H     -1.369278     1.206368     0.493388
H     -2.091184    -0.368824     0.821998
H     -2.530203     0.512277    -0.640843
H     -0.271728     0.194193    -1.586195
H     -0.948709    -1.354006    -1.146593
H      0.365324    -1.180314     1.064527
H      1.273564    -1.480621    -0.397572
H      2.467937     0.188604     0.940198
H      1.067901     1.258475     0.973384
H      1.896165     0.939168    -0.550995
14
Iteration 37, Energy=-157.3078326345, |grad|=0.004092
C     -1.699009     0.274211     0.029400
C     -0.567208    -0.418404    -0.728417
C      0.675674    -0.724870     0.116944
C      1.570723     0.484395     0.389868
H     -1.369152     1.207999     0.491069
H     -2.090100    -0.367676     0.824054
H     -2.530563     0.512002    -0.639934
H     -0.271671     0.194949    -1.585858
H     -0.948909    -1.354963    -1.146575
H      0.365200    -1.182443     1.062803
H      1.274927    -1.480413    -0.399981
H      2.466812     0.189501     0.941585
H      1.066013     1.258894     0.973005
H      1.896520     0.937581    -0.550844
14
Iteration 38, Energy=-157.3078463425, |grad|=0.004640
C     -1.697930     0.274773     0.029723
C     -0.566596    -0.419035    -0.728577
C      0.675670    -0.725941     0.116229
C      1.569848     0.485019     0.390415
H     -1.369546     1.210265     0.488448
H     -2.087899    -0.366886     0.826202
H     -2.530167     0.511327    -0.638455
H     -0.271690     0.195822    -1.585699
H     -0.949586    -1.356006    -1.146135
H      0.365052    -1.183384     1.061655
H      1.275569    -1.480596    -0.402445
H      2.465360     0.190153     0.943341
H      1.063345     1.258590     0.972793
H      1.897825     0.936662    -0.550378
14
Iteration 39, Energy=-157.3078674079, |grad|=0.006240
C     -1.695453     0.275703     0.030723
C     -0.566340    -0.419890    -0.729202
C      0.675960    -0.727295     0.114562
C      1.567933     0.484834     0.391477
H     -1.369549     1.214625     0.482622
H     -2.082298    -0.364326     0.831161
H     -2.530276     0.508821    -0.635520
H     -0.271845     0.197155    -1.585711
H     -0.950725    -1.357184    -1.145786
H      0.365005    -1.186092     1.059366
H      1.276740    -1.479973    -0.406980
H      2.461573     0.191399     0.947704
H      1.058146     1.258150     0.971626
H      1.900386     0.934836    -0.548926
14
Iteration 40, Energy=-157.3079037813, |grad|=0.011503
C     -1.691761     0.277684     0.032316
C     -0.565359    -0.421050    -0.730050
C      0.676648    -0.731301     0.109947
C      1.562882     0.484899     0.393193
H     -1.366982     1.224974     0.471149
H     -2.069231    -0.356354     0.841653
H     -2.528618     0.503661    -0.629251
H     -0.272625     0.197180    -1.587071
H     -0.953922    -1.359496    -1.142848
H      0.366751    -1.193520     1.053101
H      1.279614    -1.477922    -0.417480
H      2.452729     0.195138     0.958869
H      1.044357     1.254102     0.967632
H      1.904774     0.932767    -0.544043
14
Iteration 41, Energy=-157.3079571633, |grad|=0.009114
C     -1.685941     0.281347     0.034786
C     -0.565828    -0.422404    -0.731956
C      0.677747    -0.733944     0.105479
C      1.558145     0.482344     0.395467
H     -1.363131     1.234684     0.457767
H     -2.053835    -0.346583     0.854524
H     -2.529664     0.495984    -0.623014
H     -0.273795     0.196478    -1.589077
H     -0.956996    -1.360139    -1.141112
H      0.369145    -1.203049     1.046372
H      1.282702    -1.474618    -0.428314
H      2.441786     0.198552     0.972059
H      1.029568     1.251501     0.962832
H      1.909354     0.930609    -0.538694
14
Iteration 42, Energy=-157.3080318830, |grad|=0.007604
C     -1.677464     0.286312     0.037659
C     -0.566648    -0.423452    -0.732705
C      0.680188    -0.737994     0.098006
C      1.550595     0.479388     0.399194
H     -1.354101     1.247398     0.441696
H     -2.032624    -0.329393     0.870605
H     -2.530318     0.486836    -0.615476
H     -0.276302     0.190435    -1.594166
H     -0.962784    -1.360927    -1.137110
H      0.375784    -1.218621     1.035835
H      1.287195    -1.469597    -0.443509
H      2.425738     0.203985     0.991430
H      1.006911     1.245726     0.955365
H      1.913087     0.930665    -0.529706
14
Iteration 43, Energy=-157.3080709972, |grad|=0.013903
C     -1.670666     0.294198     0.038959
C     -0.567115    -0.427607    -0.735613
C      0.683586    -0.742236     0.091519
C      1.543215     0.477305     0.402579
H     -1.340614     1.259732     0.427212
H     -2.010466    -0.308014     0.886322
H     -2.529568     0.478458    -0.606936
H     -0.280327     0.178028    -1.601685
H     -0.970813    -1.360202    -1.131316
H      0.387129    -1.237050     1.022840
H      1.292692    -1.465533    -0.460674
H      2.407651     0.209369     1.012911
H      0.980362     1.240290     0.948940
H      1.914191     0.934025    -0.517940
14
Iteration 44, Energy=-157.3081069797, |grad|=0.005195
C     -1.669257     0.294822     0.038634
C     -0.567206    -0.426795    -0.733844
C      0.684704    -0.743134     0.089168
C      1.541828     0.478394     0.404358
H     -1.338084     1.259597     0.427635
H     -2.009981    -0.305365     0.886230
H     -2.530307     0.479454    -0.607286
H     -0.280848     0.174287    -1.603699
H     -0.972664    -1.361068    -1.130541
H      0.389476    -1.239217     1.021550
H      1.293115    -1.465475    -0.461113
H      2.406713     0.209805     1.014355
H      0.978690     1.239055     0.948592
H      1.913076     0.936403    -0.516920
14
Iteration 45, Energy=-157.3081169866, |grad|=0.003687
C     -1.669580     0.294694     0.037952
C     -0.567112    -0.426803    -0.733481
C      0.684727    -0.743134     0.089309
C      1.542177     0.479403     0.404617
H     -1.337519     1.258879     0.429002
H     -2.011508    -0.305533     0.885068
H     -2.530938     0.480766    -0.607678
H     -0.280908     0.172782    -1.604447
H     -0.973406    -1.361539    -1.130595
H      0.390239    -1.238941     1.021385
H      1.293379    -1.466464    -0.460415
H      2.407664     0.209344     1.013549
H      0.979690     1.239625     0.949721
H      1.912350     0.937683    -0.516869
14
Iteration 46, Energy=-157.3081294012, |grad|=0.003741
C     -1.669690     0.295549     0.036940
C     -0.567256    -0.427915    -0.733874
C      0.685195    -0.743422     0.088570
C      1.542114     0.480975     0.405486
H     -1.335729     1.258849     0.429491
H     -2.012182    -0.304514     0.884755
H     -2.532332     0.482335    -0.607137
H     -0.281234     0.169309    -1.606767
H     -0.975616    -1.362519    -1.130215
H      0.392260    -1.239761     1.020319
H      1.294327    -1.467896    -0.460534
H      2.407945     0.208770     1.013949
H      0.979647     1.240449     0.951783
H      1.911807     0.940554    -0.515650
14
Iteration 47, Energy=-157.3081406302, |grad|=0.004569
C     -1.668968     0.296361     0.037017
C     -0.567908    -0.429169    -0.735320
C      0.685502    -0.744065     0.087250
C      1.541503     0.481630     0.406494
H     -1.333514     1.260642     0.426820
H     -2.010330    -0.301869     0.886196
H     -2.533859     0.483213    -0.605025
H     -0.281739     0.165527    -1.609838
H     -0.978617    -1.364678    -1.129223
H      0.394200    -1.241966     1.018100
H      1.296225    -1.468096    -0.462441
H      2.406396     0.208988     1.016001
H      0.977941     1.240663     0.953973
H      1.912426     0.943579    -0.512887
14
Iteration 48, Energy=-157.3081537825, |grad|=0.004306
C     -1.667950     0.298459     0.035769
C     -0.569911    -0.432484    -0.737468
C      0.686499    -0.744504     0.084132
C      1.539637     0.482453     0.408413
H     -1.329654     1.263273     0.421689
H     -2.007201    -0.297618     0.889100
H     -2.536005     0.484798    -0.600772
H     -0.282876     0.158776    -1.615613
H     -0.983325    -1.368026    -1.126917
H      0.396905    -1.245881     1.014544
H      1.299405    -1.467106    -0.465270
H      2.404030     0.209307     1.019279
H      0.976166     1.240079     0.957888
H      1.913537     0.949234    -0.507658
14
Iteration 49, Energy=-157.3081639474, |grad|=0.003497
C     -1.666501     0.299419     0.036396
C     -0.570309    -0.433751    -0.739267
C      0.686263    -0.745023     0.082448
C      1.538440     0.482210     0.409533
H     -1.327820     1.265444     0.416574
H     -2.003418    -0.294346     0.891587
H     -2.536893     0.484778    -0.598153
H     -0.284325     0.155394    -1.617838
H     -0.985327    -1.370245    -1.125003
H      0.397479    -1.248285     1.011895
H      1.301215    -1.464658    -0.468075
H      2.401542     0.209830     1.021674
H      0.974157     1.238565     0.959592
H      1.914753     0.951432    -0.504247
14
Iteration 50, Energy=-157.3081738084, |grad|=0.003345
C     -1.664954     0.299769     0.036349
C     -0.571109    -0.434978    -0.739922
C      0.686164    -0.744927     0.080862
C      1.537156     0.481340     0.410415
H     -1.325950     1.267919     0.411116
H     -1.999067    -0.290943     0.894150
H     -2.537094     0.484470    -0.595661
H     -0.286236     0.152437    -1.620042
H     -0.986579    -1.372484    -1.122588
H      0.397233    -1.250497     1.009204
H      1.302894    -1.461177    -0.471256
H      2.399076     0.210121     1.023838
H      0.971933     1.236493     0.961486
H      1.915792     0.953221    -0.500834
14
Iteration 51, Energy=-157.3081856671, |grad|=0.004063
C     -1.663059     0.301264     0.035847
C     -0.572233    -0.436644    -0.740706
C      0.686530    -0.744502     0.079005
C      1.535212     0.481587     0.412483
H     -1.322715     1.270284     0.404442
H     -1.993564    -0.286156     0.897004
H     -2.537291     0.484159    -0.593460
H     -0.289819     0.147244    -1.623345
H     -0.987775    -1.375704    -1.118544
H      0.396994    -1.253066     1.005477
H      1.304910    -1.456456    -0.475715
H      2.396786     0.209056     1.026099
H      0.969291     1.233432     0.965120
H      1.915991     0.956264    -0.496592
14
Iteration 52, Energy=-157.3081999912, |grad|=0.005323
C     -1.660639     0.303474     0.033887
C     -0.573277    -0.439750    -0.741332
C      0.686553    -0.743159     0.074671
C      1.533495     0.482047     0.416489
H     -1.316106     1.274758     0.394124
H     -1.984925    -0.277840     0.901490
H     -2.537892     0.483823    -0.590715
H     -0.296582     0.137488    -1.630200
H     -0.989869    -1.381961    -1.110934
H      0.397011    -1.257203     0.999538
H      1.308255    -1.448831    -0.483164
H      2.393592     0.205951     1.028838
H      0.964822     1.229505     0.973770
H      1.914819     0.962460    -0.489346
14
Iteration 53, Energy=-157.3082120375, |grad|=0.003562
C     -1.659131     0.304627     0.032512
C     -0.574722    -0.441199    -0.741870
C      0.687162    -0.742056     0.073826
C      1.531817     0.483355     0.418757
H     -1.312225     1.276619     0.389689
H     -1.981607    -0.273581     0.902958
H     -2.538598     0.483858    -0.590953
H     -0.300764     0.131693    -1.634730
H     -0.990384    -1.385809    -1.106011
H      0.397342    -1.258256     0.996050
H      1.309742    -1.445371    -0.486857
H      2.393984     0.202431     1.029107
H      0.964018     1.227736     0.980418
H      1.912623     0.966714    -0.485779
14
Iteration 54, Energy=-157.3082192441, |grad|=0.002688
C     -1.659504     0.305447     0.031852
C     -0.574671    -0.441252    -0.742067
C      0.687213    -0.741468     0.073764
C      1.532002     0.484203     0.419995
H     -1.311192     1.276470     0.389832
H     -1.982128    -0.272767     0.902582
H     -2.538480     0.483604    -0.592420
H     -0.302039     0.130179    -1.636206
H     -0.989980    -1.386988    -1.104312
H      0.397901    -1.257812     0.995641
H      1.309583    -1.445366    -0.487190
H      2.395171     0.200395     1.027615
H      0.965030     1.227817     0.983482
H      1.910351     0.968302    -0.485451
14
Iteration 55, Energy=-157.3082258886, |grad|=0.002619
C     -1.659683     0.306115     0.031327
C     -0.574576    -0.441357    -0.742404
C      0.687168    -0.740674     0.073427
C      1.532265     0.484722     0.420624
H     -1.310546     1.276710     0.389940
H     -1.983331    -0.271575     0.902084
H     -2.538105     0.482930    -0.594615
H     -0.303096     0.128880    -1.637917
H     -0.989343    -1.388100    -1.102089
H      0.398862    -1.257598     0.995602
H      1.309127    -1.445622    -0.487185
H      2.396847     0.198200     1.025313
H      0.966933     1.227818     0.987663
H      1.906736     0.970314    -0.484653
14
Iteration 56, Energy=-157.3082310123, |grad|=0.004423
C     -1.659535     0.306991     0.030273
C     -0.574628    -0.441407    -0.742928
C      0.686980    -0.740536     0.073112
C      1.531699     0.484279     0.422801
H     -1.309855     1.278599     0.387758
H     -1.983759    -0.268667     0.902672
H     -2.537042     0.481548    -0.596387
H     -0.304399     0.126632    -1.640587
H     -0.989396    -1.390298    -1.098695
H      0.400605    -1.258277     0.994443
H      1.309097    -1.445185    -0.488165
H      2.397924     0.196196     1.022402
H      0.969219     1.226442     0.993699
H      1.902347     0.974443    -0.483281
14
Iteration 57, Energy=-157.3082375088, |grad|=0.002867
C     -1.659092     0.307551     0.030279
C     -0.574604    -0.441804    -0.742887
C      0.686947    -0.740541     0.072762
C      1.531405     0.484074     0.422631
H     -1.310218     1.279573     0.385894
H     -1.983468    -0.267132     0.903105
H     -2.536435     0.480732    -0.596981
H     -0.304704     0.125991    -1.641130
H     -0.989389    -1.390797    -1.097343
H      0.400977    -1.259110     0.994184
H      1.309119    -1.444558    -0.488758
H      2.398376     0.195784     1.021372
H      0.969907     1.225164     0.996137
H      1.900436     0.975835    -0.482149
14
Iteration 58, Energy=-157.3082484197, |grad|=0.003453
C     -1.657747     0.308749     0.029848
C     -0.574823    -0.442922    -0.742735
C      0.687198    -0.740869     0.071735
C      1.530245     0.483533     0.423130
H     -1.310895     1.283092     0.379817
H     -1.981935    -0.262270     0.904719
H     -2.535210     0.478803    -0.597955
H     -0.305562     0.123192    -1.642554
H     -0.990246    -1.392473    -1.093736
H      0.402123    -1.261978     0.992960
H      1.309775    -1.442643    -0.490966
H      2.399389     0.194938     1.018817
H      0.971190     1.221039     1.003089
H      1.895755     0.980573    -0.479051
14
Iteration 59, Energy=-157.3082609218, |grad|=0.004798
C     -1.656520     0.310509     0.028707
C     -0.574946    -0.444386    -0.742040
C      0.687563    -0.741390     0.071307
C      1.529436     0.483026     0.424292
H     -1.311877     1.287510     0.372264
H     -1.980306    -0.256137     0.906464
H     -2.534124     0.476550    -0.599744
H     -0.306504     0.119156    -1.643703
H     -0.991571    -1.394374    -1.089509
H      0.403727    -1.265316     0.991277
H      1.310844    -1.440722    -0.493769
H      2.401711     0.193542     1.014593
H      0.972559     1.215642     1.012764
H      1.889265     0.987151    -0.475784
14
Iteration 60, Energy=-157.3082825159, |grad|=0.010781
C     -1.655076     0.315461     0.024197
C     -0.575070    -0.447955    -0.738217
C      0.690770    -0.743464     0.069441
C      1.526923     0.482665     0.429172
H     -1.316153     1.301445     0.350681
H     -1.978150    -0.237321     0.909881
H     -2.531629     0.469356    -0.608491
H     -0.307461     0.107159    -1.645468
H     -0.995625    -1.399406    -1.077446
H      0.409413    -1.275101     0.988819
H      1.312962    -1.436631    -0.500051
H      2.414188     0.187994     0.997081
H      0.978850     1.197865     1.045252
H      1.865316     1.008696    -0.467734
14
Iteration 61, Energy=-157.3083094407, |grad|=0.005412
C     -1.654294     0.318958     0.021627
C     -0.575156    -0.450255    -0.736857
C      0.690976    -0.744341     0.070684
C      1.527202     0.482124     0.432034
H     -1.317516     1.307926     0.338968
H     -1.975640    -0.227949     0.912490
H     -2.531703     0.466290    -0.611590
H     -0.307970     0.100474    -1.645690
H     -0.998228    -1.401722    -1.072164
H      0.412307    -1.279767     0.986152
H      1.315590    -1.434461    -0.504568
H      2.419429     0.186254     0.988913
H      0.979488     1.188573     1.060233
H      1.854772     1.018659    -0.463113
14
Iteration 62, Energy=-157.3083240439, |grad|=0.003893
C     -1.655424     0.320144     0.020291
C     -0.575071    -0.450449    -0.735826
C      0.691481    -0.745074     0.071875
C      1.527943     0.482255     0.433479
H     -1.318224     1.309238     0.336519
H     -1.975763    -0.225805     0.912638
H     -2.533100     0.465628    -0.612969
H     -0.306542     0.099266    -1.644264
H     -0.999175    -1.401445    -1.072276
H      0.413572    -1.280511     0.986363
H      1.316345    -1.434858    -0.504846
H      2.422949     0.186312     0.984884
H      0.979229     1.185328     1.063833
H      1.851037     1.020733    -0.462584
14
Iteration 63, Energy=-157.3083360875, |grad|=0.003761
C     -1.656731     0.322147     0.017970
C     -0.575205    -0.451134    -0.734626
C      0.692563    -0.745663     0.072672
C      1.527912     0.481491     0.436202
H     -1.318228     1.312539     0.330745
H     -1.975338    -0.220166     0.913322
H     -2.535513     0.463989    -0.615537
H     -0.305008     0.096000    -1.644026
H     -1.000597    -1.402333    -1.070459
H      0.416341    -1.282571     0.986449
H      1.317609    -1.434401    -0.505997
H      2.429423     0.185429     0.977722
H      0.979053     1.179508     1.073073
H      1.842978     1.025926    -0.460394
14
Iteration 64, Energy=-157.3083425894, |grad|=0.004953
C     -1.657317     0.323171     0.016523
C     -0.575338    -0.451235    -0.734983
C      0.692472    -0.747436     0.072618
C      1.527559     0.481546     0.437860
H     -1.317418     1.314296     0.326811
H     -1.974444    -0.216400     0.914360
H     -2.537842     0.463020    -0.615061
H     -0.303069     0.095044    -1.644234
H     -1.001111    -1.402544    -1.070166
H      0.418591    -1.284089     0.986950
H      1.318238    -1.433618    -0.506183
H      2.432276     0.186473     0.974075
H      0.978190     1.175348     1.076572
H      1.838469     1.027187    -0.458026
14
Iteration 65, Energy=-157.3083486833, |grad|=0.002397
C     -1.656900     0.324280     0.015827
C     -0.575504    -0.451893    -0.735076
C      0.692752    -0.747304     0.072420
C      1.526460     0.480637     0.438768
H     -1.316909     1.316023     0.322890
H     -1.973322    -0.212843     0.915296
H     -2.538506     0.461962    -0.615041
H     -0.302738     0.093502    -1.645346
H     -1.001480    -1.403457    -1.068724
H      0.419938    -1.285857     0.986728
H      1.318827    -1.432833    -0.507286
H      2.433844     0.186368     0.971825
H      0.978098     1.172486     1.081039
H      1.834696     1.029692    -0.456204
14
Iteration 66, Energy=-157.3083528691, |grad|=0.001921
C     -1.655924     0.325464     0.015072
C     -0.575593    -0.452649    -0.735444
C      0.692872    -0.747645     0.072073
C      1.525064     0.479704     0.439611
H     -1.315985     1.318525     0.317235
H     -1.971247    -0.207799     0.916757
H     -2.539124     0.460545    -0.614341
H     -0.302528     0.091377    -1.646971
H     -1.001852    -1.404818    -1.066830
H      0.421608    -1.288424     0.986059
H      1.319524    -1.431514    -0.508916
H      2.434906     0.186428     0.969478
H      0.977803     1.168708     1.086814
H      1.829732     1.032862    -0.453481
14
Iteration 67, Energy=-157.3083553987, |grad|=0.002373
C     -1.655115     0.326340     0.014511
C     -0.575565    -0.453321    -0.735664
C      0.692916    -0.748015     0.071864
C      1.524125     0.479439     0.440343
H     -1.315089     1.319889     0.313629
H     -1.969517    -0.204681     0.917823
H     -2.539588     0.459784    -0.613422
H     -0.302393     0.090080    -1.647849
H     -1.001866    -1.405479    -1.066088
H      0.422461    -1.290036     0.985526
H      1.319891    -1.430844    -0.509898
H      2.435097     0.186579     0.968360
H      0.977382     1.166372     1.090036
H      1.826518     1.034655    -0.452053
14
Iteration 68, Energy=-157.3083615724, |grad|=0.003200
C     -1.652675     0.328293     0.012820
C     -0.575219    -0.454699    -0.736395
C      0.693058    -0.749298     0.071442
C      1.521210     0.478861     0.442532
H     -1.311615     1.324455     0.302686
H     -1.963390    -0.195126     0.921218
H     -2.540847     0.457638    -0.610426
H     -0.302210     0.085743    -1.650022
H     -1.001888    -1.407837    -1.064431
H      0.424597    -1.294868     0.983485
H      1.321045    -1.429143    -0.512940
H      2.435235     0.186863     0.965386
H      0.975627     1.159649     1.099851
H      1.816331     1.040232    -0.448088
14
Iteration 69, Energy=-157.3083668522, |grad|=0.003997
C     -1.649959     0.331015     0.011387
C     -0.575323    -0.457242    -0.736683
C      0.693299    -0.750952     0.070461
C      1.518500     0.478891     0.445176
H     -1.307349     1.328303     0.292579
H     -1.956122    -0.186794     0.925236
H     -2.542009     0.455848    -0.607471
H     -0.301942     0.081910    -1.651957
H     -1.001583    -1.409621    -1.063843
H      0.425588    -1.299196     0.981110
H      1.322085    -1.427936    -0.515474
H      2.434679     0.187035     0.963292
H      0.972846     1.154160     1.108331
H      1.806546     1.045343    -0.445027
14
Iteration 70, Energy=-157.3083714658, |grad|=0.002419
C     -1.649325     0.330778     0.011824
C     -0.575102    -0.457138    -0.737440
C      0.692994    -0.751027     0.070278
C      1.517338     0.479329     0.445408
H     -1.305058     1.327875     0.292532
H     -1.953426    -0.186875     0.926199
H     -2.542123     0.456284    -0.605595
H     -0.301985     0.082085    -1.651888
H     -1.001181    -1.409810    -1.065556
H      0.424502    -1.299209     0.980470
H      1.322209    -1.428479    -0.515396
H      2.432758     0.187532     0.965338
H      0.971036     1.155121     1.106337
H      1.806620     1.044296    -0.445394
14
Iteration 71, Energy=-157.3083756356, |grad|=0.001796
C     -1.648314     0.330621     0.012053
C     -0.575167    -0.457337    -0.738020
C      0.692765    -0.751460     0.069752
C      1.516127     0.479638     0.445865
H     -1.302184     1.328310     0.291493
H     -1.949373    -0.186250     0.928019
H     -2.541895     0.456461    -0.604086
H     -0.302097     0.081626    -1.651881
H     -1.001386    -1.410365    -1.067041
H      0.422959    -1.299655     0.979280
H      1.322736    -1.428808    -0.515529
H      2.431060     0.187820     0.966909
H      0.968286     1.155812     1.105575
H      1.805740     1.044350    -0.445272
14
Iteration 72, Energy=-157.3083780461, |grad|=0.001790
C     -1.647329     0.330750     0.012563
C     -0.575213    -0.457799    -0.738630
C      0.692542    -0.751904     0.069265
C      1.514999     0.479754     0.446220
H     -1.300439     1.328618     0.290516
H     -1.946326    -0.185564     0.929379
H     -2.541410     0.456300    -0.603235
H     -0.302059     0.081447    -1.652158
H     -1.002009    -1.410623    -1.067683
H      0.421809    -1.300154     0.978437
H      1.323241    -1.428881    -0.515541
H      2.430006     0.188159     0.967686
H      0.966260     1.155957     1.105085
H      1.805185     1.044702    -0.444787
14
Iteration 73, Energy=-157.3083796120, |grad|=0.003724
C     -1.644471     0.331593     0.012120
C     -0.575218    -0.458825    -0.739823
C      0.691901    -0.752862     0.068063
C      1.512159     0.479418     0.447124
H     -1.296340     1.330180     0.286481
H     -1.938686    -0.182323     0.933460
H     -2.539842     0.454973    -0.600499
H     -0.301633     0.080637    -1.653716
H     -1.004402    -1.411340    -1.068326
H      0.419721    -1.302373     0.976495
H      1.325016    -1.428855    -0.515892
H      2.427699     0.189508     0.968087
H      0.961134     1.154482     1.105712
H      1.802218     1.046550    -0.442167
14
Iteration 74, Energy=-157.3083823718, |grad|=0.001056
C     -1.643838     0.331840     0.012594
C     -0.575222    -0.459164    -0.740212
C      0.692164    -0.753421     0.068022
C      1.511759     0.479239     0.447467
H     -1.296351     1.330893     0.284895
H     -1.937963    -0.180675     0.933436
H     -2.540070     0.454380    -0.600601
H     -0.301492     0.080020    -1.654116
H     -1.004889    -1.411246    -1.067587
H      0.420129    -1.303054     0.976252
H      1.325207    -1.428475    -0.516091
H      2.428112     0.189629     0.967152
H      0.960871     1.153112     1.107341
H      1.800841     1.047683    -0.441437
14
Iteration 75, Energy=-157.3083829078, |grad|=0.000821
C     -1.643743     0.332165     0.012350
C     -0.575063    -0.459260    -0.740152
C      0.692266    -0.753542     0.068040
C      1.511629     0.479111     0.447595
H     -1.296616     1.331363     0.283939
H     -1.938018    -0.179713     0.933371
H     -2.540151     0.453953    -0.600617
H     -0.301427     0.079593    -1.654414
H     -1.005144    -1.411223    -1.066989
H      0.420643    -1.303488     0.976256
H      1.325341    -1.428309    -0.516312
H      2.428603     0.189645     0.966403
H      0.961057     1.152060     1.108626
H      1.799881     1.048407    -0.440980
14
Iteration 76, Energy=-157.3083836546, |grad|=0.000782
C     -1.642976     0.332845     0.011938
C     -0.574835    -0.459399    -0.740228
C      0.692505    -0.753909     0.067871
C      1.511145     0.478972     0.447965
H     -1.296441     1.332463     0.281990
H     -1.936811    -0.177813     0.933713
H     -2.540048     0.452976    -0.600245
H     -0.301340     0.078596    -1.655075
H     -1.006086    -1.411055    -1.066118
H      0.421077    -1.304390     0.975870
H      1.325934    -1.428323    -0.516661
H      2.428882     0.189914     0.965409
H      0.960388     1.150027     1.110702
H      1.797863     1.049860    -0.440014
14
Iteration 77, Energy=-157.3083839861, |grad|=0.000934
C     -1.642695     0.333286     0.011751
C     -0.574572    -0.459566    -0.740233
C      0.692746    -0.754255     0.067548
C      1.510687     0.478937     0.448193
H     -1.296184     1.333355     0.280942
H     -1.935749    -0.176818     0.933970
H     -2.539888     0.452408    -0.599979
H     -0.301323     0.077915    -1.655521
H     -1.006718    -1.410902    -1.065650
H      0.421230    -1.304816     0.975511
H      1.326283    -1.428439    -0.516811
H      2.429035     0.190077     0.965138
H      0.959764     1.148828     1.111809
H      1.796641     1.050753    -0.439550
14
Iteration 78, Energy=-157.3083842786, |grad|=0.000435
C     -1.642213     0.333671     0.011653
C     -0.574465    -0.459517    -0.740297
C      0.692869    -0.754419     0.067429
C      1.510517     0.478899     0.448344
H     -1.295997     1.333919     0.280323
H     -1.934880    -0.176257     0.934191
H     -2.539815     0.452002    -0.599814
H     -0.301329     0.077390    -1.655792
H     -1.007259    -1.410759    -1.065387
H      0.421266    -1.305041     0.975190
H      1.326650    -1.428731    -0.516933
H      2.428966     0.190265     0.965034
H      0.959131     1.148018     1.112433
H      1.795817     1.051322    -0.439258
14
Iteration 79, Energy=-157.3083843777, |grad|=0.000266
C     -1.642113     0.333735     0.011683
C     -0.574521    -0.459417    -0.740319
C      0.692988    -0.754428     0.067315
C      1.510564     0.478902     0.448350
H     -1.296020     1.334091     0.280468
H     -1.934639    -0.176387     0.934195
H     -2.539774     0.451991    -0.599832
H     -0.301321     0.077278    -1.655859
H     -1.007382    -1.410680    -1.065359
H      0.421234    -1.304947     0.975144
H      1.326708    -1.428962    -0.516913
H      2.428882     0.190360     0.965214
H      0.958907     1.147904     1.112305
H      1.795746     1.051322    -0.439274
