9
Iteration -1, Energy=-154.0837996503, |grad|=0.044117
C     -0.977020     0.054531     0.039344
C      0.487693    -0.332548    -0.192952
O      1.302254     0.336299     0.743792
H     -1.353582     0.729531    -0.729129
H     -1.591671    -0.850511     0.025441
H     -1.069217     0.581118     0.999619
H      0.788253    -0.138478    -1.230198
H      0.594696    -1.412625    -0.042175
H      1.818594     1.032682     0.386258
9
Iteration 0, Energy=-154.0843833249, |grad|=0.059413
C     -0.977280     0.053879     0.035312
C      0.484312    -0.325026    -0.187773
O      1.305233     0.320355     0.751886
H     -1.354690     0.731318    -0.731808
H     -1.597106    -0.844075     0.028915
H     -1.069673     0.569254     0.994917
H      0.790027    -0.136048    -1.225589
H      0.600639    -1.406722    -0.038040
H      1.818537     1.037066     0.372179
9
Iteration 1, Energy=-154.0845218986, |grad|=0.050410
C     -0.977426     0.054016     0.035048
C      0.484324    -0.325429    -0.187719
O      1.306588     0.321340     0.751470
H     -1.354739     0.731400    -0.731912
H     -1.597414    -0.843895     0.029010
H     -1.069755     0.568832     0.994901
H      0.790125    -0.135845    -1.225265
H      0.600790    -1.406329    -0.037911
H      1.817506     1.035909     0.372380
9
Iteration 2, Energy=-154.0846419088, |grad|=0.041768
C     -0.977582     0.054161     0.034750
C      0.484372    -0.325814    -0.187628
O      1.308002     0.322251     0.751056
H     -1.354799     0.731507    -0.732045
H     -1.597786    -0.843676     0.029119
H     -1.069854     0.568327     0.994881
H      0.790244    -0.135606    -1.224881
H      0.600981    -1.405891    -0.037742
H      1.816423     1.034742     0.372490
9
Iteration 3, Energy=-154.0847553432, |grad|=0.033101
C     -0.977772     0.054333     0.034367
C      0.484479    -0.326215    -0.187468
O      1.309665     0.323127     0.750608
H     -1.354883     0.731667    -0.732242
H     -1.598304    -0.843366     0.029265
H     -1.069996     0.567629     0.994855
H      0.790411    -0.135282    -1.224356
H      0.601260    -1.405332    -0.037484
H      1.815140     1.033439     0.372456
9
Iteration 4, Energy=-154.0848986430, |grad|=0.023885
C     -0.978106     0.054629     0.033620
C      0.484794    -0.326749    -0.187045
O      1.312504     0.324063     0.749965
H     -1.355063     0.732038    -0.732690
H     -1.599418    -0.842687     0.029556
H     -1.070308     0.566145     0.994806
H      0.790778    -0.134603    -1.223256
H      0.601890    -1.404267    -0.036881
H      1.812930     1.031431     0.371924
9
Iteration 0, Energy=-154.0378396116, |grad|=0.558825
C     -0.905691     0.116632     0.039997
C      0.578310    -0.366860    -0.179545
O      1.268780     0.271992     0.679680
H     -1.368089     0.650752    -0.829576
H     -1.586276    -0.793072     0.082127
H     -1.142159     0.512822     0.921933
H      0.749537    -0.122233    -1.212013
H      0.669900    -1.370585     0.010389
H      1.871588     1.014980     0.469821
9
Iteration -1, Energy=-154.0848986430, |grad|=0.023885
C     -0.978106     0.054629     0.033620
C      0.484794    -0.326749    -0.187045
O      1.312504     0.324063     0.749965
H     -1.355063     0.732038    -0.732690
H     -1.599418    -0.842687     0.029556
H     -1.070308     0.566145     0.994806
H      0.790778    -0.134603    -1.223256
H      0.601890    -1.404267    -0.036881
H      1.812930     1.031431     0.371924
9
Iteration 0, Energy=-154.0853048312, |grad|=0.062604
C     -0.981230     0.057274     0.024380
C      0.490758    -0.327373    -0.179005
O      1.338238     0.316203     0.747971
H     -1.357669     0.738273    -0.739915
H     -1.616076    -0.832204     0.033216
H     -1.075295     0.544420     0.994345
H      0.796672    -0.124784    -1.207564
H      0.612050    -1.391869    -0.026618
H      1.792552     1.020061     0.353190
9
Iteration 1, Energy=-154.0857062783, |grad|=0.012742
C     -0.980248     0.056419     0.025327
C      0.489948    -0.324999    -0.178315
O      1.334062     0.308955     0.750653
H     -1.357446     0.738763    -0.740105
H     -1.616462    -0.831675     0.032475
H     -1.075848     0.544335     0.994759
H      0.797540    -0.124449    -1.207819
H      0.612564    -1.394097    -0.025758
H      1.795889     1.026748     0.348784
9
Iteration 2, Energy=-154.0857769409, |grad|=0.017484
C     -0.979190     0.055828     0.027143
C      0.486062    -0.326322    -0.177579
O      1.338345     0.310398     0.748628
H     -1.355930     0.739696    -0.739408
H     -1.617980    -0.829891     0.029448
H     -1.078135     0.543808     0.996640
H      0.800852    -0.122652    -1.207756
H      0.613280    -1.398917    -0.023865
H      1.792696     1.028052     0.346748
9
Iteration 3, Energy=-154.0858202407, |grad|=0.014647
C     -0.980584     0.056790     0.027302
C      0.489221    -0.327555    -0.177582
O      1.336852     0.307235     0.748654
H     -1.354880     0.739776    -0.738465
H     -1.618673    -0.829370     0.028308
H     -1.078959     0.543337     0.997346
H      0.801052    -0.122638    -1.206413
H      0.613179    -1.398796    -0.023310
H      1.792792     1.031220     0.344160
9
Iteration 4, Energy=-154.0858331355, |grad|=0.011707
C     -0.980458     0.056722     0.027357
C      0.489107    -0.327671    -0.177533
O      1.337337     0.307643     0.748367
H     -1.354772     0.739898    -0.738421
H     -1.618801    -0.829285     0.028123
H     -1.079094     0.543274     0.997471
H      0.801159    -0.122631    -1.206338
H      0.613186    -1.398928    -0.023233
H      1.792335     1.030978     0.344207
9
Iteration 0, Energy=-154.0352695553, |grad|=0.741769
C     -1.011395     0.037337     0.022858
C      0.532817    -0.370095    -0.276559
O      1.363242     0.412506     0.756518
H     -1.435666     0.644285    -0.708257
H     -1.538338    -0.925013     0.017578
H     -1.014216     0.508657     1.070406
H      0.869281    -0.152928    -1.287570
H      0.568123    -1.447250    -0.102159
H      1.796722     1.041699     0.467389
9
Iteration -1, Energy=-154.0858331355, |grad|=0.011707
C     -0.980458     0.056722     0.027357
C      0.489107    -0.327671    -0.177533
O      1.337337     0.307643     0.748367
H     -1.354772     0.739898    -0.738421
H     -1.618801    -0.829285     0.028123
H     -1.079094     0.543274     0.997471
H      0.801159    -0.122631    -1.206338
H      0.613186    -1.398928    -0.023233
H      1.792335     1.030978     0.344207
9
Iteration 0, Energy=-154.0858497177, |grad|=0.008602
C     -0.980229     0.056604     0.027478
C      0.488950    -0.327882    -0.177414
O      1.338163     0.308215     0.747869
H     -1.354523     0.740150    -0.738308
H     -1.619072    -0.829101     0.027722
H     -1.079379     0.543127     0.997731
H      0.801377    -0.122628    -1.206170
H      0.613207    -1.399201    -0.023058
H      1.791506     1.030716     0.344150
9
Iteration 1, Energy=-154.0859237929, |grad|=0.023038
C     -0.978158     0.055762     0.029144
C      0.488750    -0.330014    -0.175621
O      1.344832     0.309560     0.743749
H     -1.350815     0.743290    -0.736357
H     -1.622568    -0.826577     0.022284
H     -1.083114     0.540858     1.000973
H      0.803977    -0.122898    -1.203765
H      0.613590    -1.402559    -0.020499
H      1.783506     1.032578     0.340093
9
Iteration 2, Energy=-154.0859852611, |grad|=0.007928
C     -0.978857     0.056312     0.029225
C      0.489873    -0.330167    -0.175432
O      1.343358     0.306582     0.744745
H     -1.350121     0.743425    -0.735783
H     -1.622681    -0.826293     0.021739
H     -1.083323     0.540350     1.001046
H      0.803902    -0.123253    -1.203484
H      0.613652    -1.402444    -0.020176
H      1.784198     1.035488     0.338119
9
Iteration 3, Energy=-154.0860241377, |grad|=0.016948
C     -0.979591     0.057079     0.029521
C      0.490515    -0.332344    -0.174814
O      1.347370     0.308052     0.742911
H     -1.347189     0.745234    -0.733845
H     -1.623544    -0.824870     0.018828
H     -1.084583     0.538125     1.002125
H      0.804099    -0.124881    -1.202557
H      0.613745    -1.402727    -0.018852
H      1.779179     1.036331     0.336683
9
Iteration 4, Energy=-154.0860388141, |grad|=0.018957
C     -0.978267     0.056344     0.029989
C      0.490579    -0.330781    -0.174050
O      1.345555     0.303836     0.743792
H     -1.346476     0.746543    -0.733779
H     -1.624067    -0.824533     0.017743
H     -1.085046     0.537495     1.002816
H      0.804127    -0.125681    -1.202471
H      0.613973    -1.403725    -0.018017
H      1.779622     1.040503     0.333976
9
Iteration 0, Energy=-154.0221681025, |grad|=0.545756
C     -0.888404    -0.036284    -0.001815
C      0.463764    -0.356104    -0.255367
O      1.259601     0.333820     0.817990
H     -1.384719     0.780680    -0.758153
H     -1.573004    -0.790663     0.037855
H     -1.028386     0.563820     1.036245
H      0.714984    -0.096794    -1.245857
H      0.536798    -1.498887     0.003774
H      1.892268     1.071466     0.331962
9
Iteration -1, Energy=-154.0860388141, |grad|=0.018957
C     -0.978267     0.056344     0.029989
C      0.490579    -0.330781    -0.174050
O      1.345555     0.303836     0.743792
H     -1.346476     0.746543    -0.733779
H     -1.624067    -0.824533     0.017743
H     -1.085046     0.537495     1.002816
H      0.804127    -0.125681    -1.202471
H      0.613973    -1.403725    -0.018017
H      1.779622     1.040503     0.333976
9
Iteration 0, Energy=-154.0860506690, |grad|=0.016278
C     -0.978281     0.056386     0.029980
C      0.490553    -0.330946    -0.174054
O      1.345855     0.304188     0.743612
H     -1.346397     0.746597    -0.733721
H     -1.624087    -0.824505     0.017659
H     -1.085075     0.537433     1.002857
H      0.804131    -0.125728    -1.202454
H      0.613962    -1.403707    -0.017987
H      1.779339     1.040281     0.334106
9
Iteration 1, Energy=-154.0860606684, |grad|=0.013783
C     -0.978293     0.056428     0.029974
C      0.490532    -0.331112    -0.174055
O      1.346155     0.304523     0.743431
H     -1.346305     0.746662    -0.733656
H     -1.624110    -0.824472     0.017563
H     -1.085109     0.537363     1.002904
H      0.804133    -0.125783    -1.202434
H      0.613951    -1.403692    -0.017949
H      1.779046     1.040083     0.334221
9
Iteration 2, Energy=-154.0860696046, |grad|=0.011385
C     -0.978304     0.056475     0.029970
C      0.490516    -0.331291    -0.174050
O      1.346477     0.304860     0.743236
H     -1.346191     0.746747    -0.733576
H     -1.624140    -0.824430     0.017440
H     -1.085151     0.537274     1.002964
H      0.804135    -0.125856    -1.202410
H      0.613941    -1.403683    -0.017896
H      1.778717     1.039903     0.334323
9
Iteration 3, Energy=-154.0860788625, |grad|=0.008914
C     -0.978313     0.056536     0.029972
C      0.490508    -0.331522    -0.174035
O      1.346891     0.305251     0.742980
H     -1.346014     0.746885    -0.733457
H     -1.624186    -0.824362     0.017248
H     -1.085216     0.537135     1.003056
H      0.804136    -0.125974    -1.202373
H      0.613929    -1.403682    -0.017806
H      1.778265     1.039733     0.334415
9
Iteration 4, Energy=-154.0860949336, |grad|=0.007142
C     -0.978309     0.056690     0.030006
C      0.490544    -0.332092    -0.173953
O      1.347904     0.306002     0.742342
H     -1.345433     0.747362    -0.733082
H     -1.624340    -0.824130     0.016612
H     -1.085429     0.536676     1.003363
H      0.804129    -0.126385    -1.202257
H      0.613910    -1.403739    -0.017479
H      1.777024     1.039615     0.334448
9
Iteration 0, Energy=-154.0288982360, |grad|=0.619549
C     -0.864653     0.039918     0.050346
C      0.404917    -0.331500    -0.212959
O      1.351892     0.402134     0.789551
H     -1.350837     0.711171    -0.799433
H     -1.648877    -0.912369    -0.000920
H     -1.165668     0.513473     0.989648
H      0.710203    -0.139775    -1.195342
H      0.654111    -1.419507     0.050897
H      1.863340     1.053186     0.318304
9
Iteration -1, Energy=-154.0860949336, |grad|=0.007142
C     -0.978309     0.056690     0.030006
C      0.490544    -0.332092    -0.173953
O      1.347904     0.306002     0.742342
H     -1.345433     0.747362    -0.733082
H     -1.624340    -0.824130     0.016612
H     -1.085429     0.536676     1.003363
H      0.804129    -0.126385    -1.202257
H      0.613910    -1.403739    -0.017479
H      1.777024     1.039615     0.334448
9
Iteration 0, Energy=-154.0861880369, |grad|=0.020654
C     -0.977344     0.057128     0.031007
C      0.491992    -0.333657    -0.172388
O      1.350794     0.302229     0.740169
H     -1.339658     0.752788    -0.729729
H     -1.625947    -0.821603     0.010033
H     -1.087528     0.531984     1.006526
H      0.803888    -0.131036    -1.201259
H      0.614119    -1.405657    -0.013476
H      1.769685     1.047824     0.329117
9
Iteration 1, Energy=-154.0862012895, |grad|=0.017836
C     -0.977307     0.057134     0.031004
C      0.491908    -0.333776    -0.172385
O      1.351091     0.302606     0.739983
H     -1.339597     0.752860    -0.729688
H     -1.625961    -0.821578     0.009952
H     -1.087544     0.531926     1.006567
H      0.803892    -0.131092    -1.201272
H      0.614108    -1.405662    -0.013438
H      1.769409     1.047583     0.329277
9
Iteration 2, Energy=-154.0862120063, |grad|=0.015303
C     -0.977270     0.057140     0.031002
C      0.491832    -0.333888    -0.172379
O      1.351371     0.302950     0.739805
H     -1.339530     0.752939    -0.729643
H     -1.625975    -0.821552     0.009865
H     -1.087560     0.531864     1.006612
H      0.803894    -0.131156    -1.201285
H      0.614098    -1.405671    -0.013395
H      1.769139     1.047374     0.329419
9
Iteration 3, Energy=-154.0862209327, |grad|=0.012998
C     -0.977231     0.057146     0.031002
C      0.491761    -0.333998    -0.172371
O      1.351646     0.303274     0.739628
H     -1.339453     0.753027    -0.729591
H     -1.625991    -0.821520     0.009765
H     -1.087578     0.531792     1.006661
H      0.803895    -0.131230    -1.201297
H      0.614088    -1.405684    -0.013342
H      1.768863     1.047193     0.329546
9
Iteration 4, Energy=-154.0862288718, |grad|=0.010834
C     -0.977185     0.057154     0.031005
C      0.491690    -0.334114    -0.172359
O      1.351936     0.303595     0.739439
H     -1.339356     0.753138    -0.729527
H     -1.626011    -0.821481     0.009641
H     -1.087600     0.531703     1.006722
H      0.803893    -0.131325    -1.201311
H      0.614077    -1.405704    -0.013273
H      1.768556     1.047034     0.329663
9
Iteration 0, Energy=-154.0250710849, |grad|=0.570472
C     -0.954665    -0.034206     0.098549
C      0.479543    -0.261431    -0.219355
O      1.236596     0.275821     0.697907
H     -1.289757     0.700143    -0.679298
H     -1.539797    -0.830215     0.097711
H     -1.155665     0.577632     1.008190
H      0.694908    -0.189776    -1.221210
H      0.569957    -1.511208    -0.096797
H      1.914773     1.044332     0.477863
9
Iteration -1, Energy=-154.0862288718, |grad|=0.010834
C     -0.977185     0.057154     0.031005
C      0.491690    -0.334114    -0.172359
O      1.351936     0.303595     0.739439
H     -1.339356     0.753138    -0.729527
H     -1.626011    -0.821481     0.009641
H     -1.087600     0.531703     1.006722
H      0.803893    -0.131325    -1.201311
H      0.614077    -1.405704    -0.013273
H      1.768556     1.047034     0.329663
9
Iteration 0, Energy=-154.0862371944, |grad|=0.008654
C     -0.977121     0.057166     0.031013
C      0.491608    -0.334263    -0.172336
O      1.352304     0.303967     0.739194
H     -1.339204     0.753309    -0.729427
H     -1.626041    -0.821418     0.009449
H     -1.087633     0.531563     1.006816
H      0.803886    -0.131476    -1.201330
H      0.614063    -1.405739    -0.013161
H      1.768137     1.046892     0.329782
9
Iteration 1, Energy=-154.0862524283, |grad|=0.007070
C     -0.976932     0.057206     0.031056
C      0.491451    -0.334633    -0.172249
O      1.353193     0.304693     0.738579
H     -1.338703     0.753866    -0.729097
H     -1.626136    -0.821207     0.008818
H     -1.087738     0.531100     1.007116
H      0.803850    -0.131986    -1.201377
H      0.614030    -1.405873    -0.012773
H      1.766986     1.046833     0.329928
9
Iteration 2, Energy=-154.0863809481, |grad|=0.023125
C     -0.975074     0.057812     0.032062
C      0.492561    -0.336513    -0.170751
O      1.356585     0.300727     0.735315
H     -1.331457     0.761691    -0.724310
H     -1.627373    -0.818071    -0.000124
H     -1.089099     0.524429     1.011220
H      0.802860    -0.139656    -1.201628
H      0.613867    -1.408215    -0.006675
H      1.757129     1.057796     0.324890
9
Iteration 3, Energy=-154.0863958583, |grad|=0.020264
C     -0.975068     0.057830     0.032050
C      0.492514    -0.336647    -0.170767
O      1.356861     0.301117     0.735126
H     -1.331402     0.761752    -0.724263
H     -1.627377    -0.818047    -0.000197
H     -1.089103     0.524374     1.011258
H      0.802856    -0.139716    -1.201632
H      0.613849    -1.408202    -0.006639
H      1.756870     1.057540     0.325064
9
Iteration 4, Energy=-154.0864078231, |grad|=0.017717
C     -0.975062     0.057847     0.032041
C      0.492473    -0.336771    -0.170781
O      1.357115     0.301468     0.734950
H     -1.331345     0.761817    -0.724214
H     -1.627382    -0.818022    -0.000274
H     -1.089106     0.524316     1.011296
H      0.802852    -0.139781    -1.201637
H      0.613832    -1.408193    -0.006600
H      1.756623     1.057319     0.325219
9
Iteration 0, Energy=-154.0516522422, |grad|=0.372485
C     -0.944226     0.030911     0.096976
C      0.459957    -0.323523    -0.218238
O      1.350762     0.394783     0.706080
H     -1.294510     0.668954    -0.787460
H     -1.581419    -0.944065     0.120833
H     -1.150485     0.507270     1.104881
H      0.756386    -0.061501    -1.259380
H      0.513573    -1.526047    -0.007739
H      1.749019     1.120280     0.387315
9
Iteration -1, Energy=-154.0864078231, |grad|=0.017717
C     -0.975062     0.057847     0.032041
C      0.492473    -0.336771    -0.170781
O      1.357115     0.301468     0.734950
H     -1.331345     0.761817    -0.724214
H     -1.627382    -0.818022    -0.000274
H     -1.089106     0.524316     1.011296
H      0.802852    -0.139781    -1.201637
H      0.613832    -1.408193    -0.006600
H      1.756623     1.057319     0.325219
9
Iteration 0, Energy=-154.0864175580, |grad|=0.015445
C     -0.975054     0.057863     0.032032
C      0.492437    -0.336887    -0.170793
O      1.357353     0.301786     0.734782
H     -1.331284     0.761886    -0.724163
H     -1.627387    -0.817994    -0.000355
H     -1.089110     0.524255     1.011337
H      0.802847    -0.139851    -1.201642
H      0.613816    -1.408187    -0.006556
H      1.756383     1.057128     0.325358
9
Iteration 1, Energy=-154.0864256991, |grad|=0.013397
C     -0.975045     0.057880     0.032026
C      0.492407    -0.336998    -0.170803
O      1.357580     0.302082     0.734618
H     -1.331217     0.761964    -0.724108
H     -1.627394    -0.817964    -0.000445
H     -1.089114     0.524186     1.011381
H      0.802840    -0.139930    -1.201647
H      0.613800    -1.408184    -0.006504
H      1.756142     1.056964     0.325482
9
Iteration 2, Energy=-154.0864328868, |grad|=0.011503
C     -0.975032     0.057897     0.032020
C      0.492381    -0.337113    -0.170811
O      1.357812     0.302370     0.734448
H     -1.331138     0.762056    -0.724043
H     -1.627401    -0.817928    -0.000552
H     -1.089119     0.524105     1.011433
H      0.802830    -0.140025    -1.201654
H      0.613783    -1.408184    -0.006441
H      1.755884     1.056821     0.325599
9
Iteration 3, Energy=-154.0864400190, |grad|=0.009646
C     -0.975014     0.057920     0.032016
C      0.492356    -0.337246    -0.170817
O      1.358079     0.302680     0.734247
H     -1.331029     0.762182    -0.723955
H     -1.627412    -0.817878    -0.000697
H     -1.089125     0.523994     1.011502
H      0.802816    -0.140156    -1.201663
H      0.613762    -1.408189    -0.006351
H      1.755567     1.056693     0.325718
9
Iteration 4, Energy=-154.0864496571, |grad|=0.007657
C     -0.974973     0.057959     0.032014
C      0.492333    -0.337463    -0.170820
O      1.358507     0.303124     0.733911
H     -1.330811     0.762439    -0.723781
H     -1.627436    -0.817778    -0.000991
H     -1.089136     0.523769     1.011641
H      0.802785    -0.140424    -1.201682
H      0.613727    -1.408212    -0.006161
H      1.755005     1.056587     0.325869
9
Iteration 0, Energy=-154.0434765272, |grad|=0.444346
C     -0.912930     0.066849     0.028749
C      0.517403    -0.288065    -0.124057
O      1.311125     0.283315     0.748704
H     -1.342746     0.800585    -0.831519
H     -1.680537    -0.873259    -0.023719
H     -1.054665     0.540917     1.070928
H      0.738934    -0.198613    -1.164780
H      0.497133    -1.442043    -0.045764
H      1.834797     1.116191     0.467845
9
Iteration -1, Energy=-154.0864496571, |grad|=0.007657
C     -0.974973     0.057959     0.032014
C      0.492333    -0.337463    -0.170820
O      1.358507     0.303124     0.733911
H     -1.330811     0.762439    -0.723781
H     -1.627436    -0.817778    -0.000991
H     -1.089136     0.523769     1.011641
H      0.802785    -0.140424    -1.201682
H      0.613727    -1.408212    -0.006161
H      1.755005     1.056587     0.325869
9
Iteration 0, Energy=-154.0864941578, |grad|=0.022048
C     -0.974285     0.058422     0.032142
C      0.492503    -0.339532    -0.170635
O      1.362410     0.305712     0.730521
H     -1.327652     0.766219    -0.721311
H     -1.627800    -0.816322    -0.005254
H     -1.089288     0.520489     1.013615
H      0.802288    -0.144412    -1.201980
H      0.613332    -1.408805    -0.003242
H      1.748492     1.058229     0.326143
9
Iteration 1, Energy=-154.0865496476, |grad|=0.007640
C     -0.974066     0.058387     0.032293
C      0.492876    -0.338895    -0.170413
O      1.361010     0.302760     0.731360
H     -1.327243     0.766774    -0.721028
H     -1.627874    -0.816127    -0.005830
H     -1.089290     0.520028     1.013839
H      0.802196    -0.145023    -1.202073
H      0.613387    -1.409113    -0.002705
H      1.749003     1.061210     0.324556
9
Iteration 2, Energy=-154.0865903813, |grad|=0.034792
C     -0.972107     0.059077     0.032664
C      0.492025    -0.342030    -0.169757
O      1.367564     0.306793     0.725923
H     -1.321953     0.773521    -0.716777
H     -1.628547    -0.813644    -0.013293
H     -1.089372     0.514181     1.017134
H      0.801635    -0.152058    -1.203231
H      0.612774    -1.410513     0.002526
H      1.737982     1.064674     0.324811
9
Iteration 3, Energy=-154.0867180375, |grad|=0.007612
C     -0.972314     0.059090     0.032778
C      0.493165    -0.341164    -0.169697
O      1.365252     0.302330     0.727260
H     -1.321514     0.773976    -0.716424
H     -1.628537    -0.813371    -0.013827
H     -1.089348     0.513740     1.017355
H      0.801420    -0.152715    -1.203091
H      0.612819    -1.410743     0.003097
H      1.739057     1.068856     0.322549
9
Iteration 4, Energy=-154.0868269925, |grad|=0.031375
C     -0.971735     0.060249     0.032810
C      0.496024    -0.345245    -0.169831
O      1.371381     0.305667     0.719842
H     -1.314605     0.782475    -0.710403
H     -1.629010    -0.809726    -0.023440
H     -1.089183     0.506154     1.021842
H      0.800057    -0.162335    -1.203238
H      0.611671    -1.411698     0.010022
H      1.725400     1.074458     0.322397
9
Iteration 0, Energy=-154.0032220312, |grad|=0.761512
C     -0.858593     0.122130     0.017464
C      0.418118    -0.256762    -0.100554
O      1.235131     0.297080     0.678204
H     -1.419474     0.775462    -0.793239
H     -1.577005    -0.914316     0.000726
H     -1.155885     0.516133     1.053357
H      0.708909    -0.171601    -1.188072
H      0.511910    -1.345413    -0.142987
H      1.782522     1.010707     0.309458
9
Iteration -1, Energy=-154.0868269925, |grad|=0.031375
C     -0.971735     0.060249     0.032810
C      0.496024    -0.345245    -0.169831
O      1.371381     0.305667     0.719842
H     -1.314605     0.782475    -0.710403
H     -1.629010    -0.809726    -0.023440
H     -1.089183     0.506154     1.021842
H      0.800057    -0.162335    -1.203238
H      0.611671    -1.411698     0.010022
H      1.725400     1.074458     0.322397
9
Iteration 0, Energy=-154.0869366952, |grad|=0.008745
C     -0.970570     0.060044     0.033142
C      0.495211    -0.344115    -0.169217
O      1.369781     0.301613     0.721358
H     -1.314323     0.783207    -0.710280
H     -1.629244    -0.809687    -0.024051
H     -1.089169     0.505650     1.021984
H      0.800193    -0.162932    -1.203845
H      0.611869    -1.412307     0.010641
H      1.726252     1.078527     0.320266
9
Iteration 1, Energy=-154.0869745175, |grad|=0.019454
C     -0.968279     0.060209     0.033558
C      0.491985    -0.345294    -0.168511
O      1.373437     0.303992     0.719670
H     -1.312177     0.786386    -0.708460
H     -1.629629    -0.808704    -0.027424
H     -1.089022     0.502849     1.023129
H      0.800485    -0.166074    -1.205502
H      0.611818    -1.413384     0.013085
H      1.721382     1.080020     0.320452
9
Iteration 2, Energy=-154.0870213709, |grad|=0.012634
C     -0.969650     0.060456     0.033446
C      0.494680    -0.345028    -0.168879
O      1.371651     0.300627     0.719932
H     -1.311348     0.786956    -0.707649
H     -1.629406    -0.808067    -0.028278
H     -1.088940     0.502135     1.023582
H      0.799974    -0.167155    -1.204838
H      0.611663    -1.413327     0.013867
H      1.721376     1.083403     0.318818
9
Iteration 3, Energy=-154.0870282249, |grad|=0.010971
C     -0.969594     0.060467     0.033443
C      0.494649    -0.345128    -0.168872
O      1.371849     0.300912     0.719744
H     -1.311272     0.787074    -0.707581
H     -1.629424    -0.808033    -0.028400
H     -1.088938     0.502041     1.023643
H      0.799967    -0.167271    -1.204855
H      0.611643    -1.413331     0.013945
H      1.721119     1.083270     0.318933
9
Iteration 4, Energy=-154.0870361417, |grad|=0.009229
C     -0.969512     0.060482     0.033441
C      0.494616    -0.345260    -0.168860
O      1.372107     0.301259     0.719489
H     -1.311152     0.787257    -0.707476
H     -1.629449    -0.807979    -0.028590
H     -1.088934     0.501894     1.023737
H      0.799954    -0.167455    -1.204879
H      0.611615    -1.413342     0.014071
H      1.720754     1.083143     0.319065
9
Iteration 0, Energy=-154.0442676237, |grad|=0.417465
C     -0.898159     0.058548     0.094753
C      0.478143    -0.384279    -0.278293
O      1.323691     0.413475     0.697033
H     -1.426113     0.804825    -0.688357
H     -1.555383    -0.790482     0.109619
H     -1.080799     0.612850     0.929953
H      0.835135    -0.136983    -1.320558
H      0.606267    -1.484528    -0.133646
H      1.881353     1.063659     0.449056
9
Iteration -1, Energy=-154.0870361417, |grad|=0.009229
C     -0.969512     0.060482     0.033441
C      0.494616    -0.345260    -0.168860
O      1.372107     0.301259     0.719489
H     -1.311152     0.787257    -0.707476
H     -1.629449    -0.807979    -0.028590
H     -1.088934     0.501894     1.023737
H      0.799954    -0.167455    -1.204879
H      0.611615    -1.413342     0.014071
H      1.720754     1.083143     0.319065
9
Iteration 0, Energy=-154.0870519924, |grad|=0.007632
C     -0.969284     0.060527     0.033446
C      0.494575    -0.345580    -0.168818
O      1.372716     0.301964     0.718845
H     -1.310772     0.787820    -0.707142
H     -1.629519    -0.807800    -0.029180
H     -1.088918     0.501434     1.024022
H      0.799907    -0.168033    -1.204949
H      0.611541    -1.413397     0.014480
H      1.719754     1.083065     0.319297
9
Iteration 1, Energy=-154.0876932192, |grad|=0.028919
C     -0.960074     0.062826     0.034786
C      0.499045    -0.353314    -0.166438
O      1.384862     0.298385     0.700331
H     -1.288864     0.818171    -0.687942
H     -1.632410    -0.796642    -0.061789
H     -1.087702     0.475442     1.038760
H      0.796437    -0.201099    -1.208345
H      0.608765    -1.418508     0.038943
H      1.679941     1.114740     0.311693
9
Iteration 2, Energy=-154.0877137435, |grad|=0.025928
C     -0.960204     0.062877     0.034778
C      0.498937    -0.353480    -0.166501
O      1.385142     0.298837     0.700219
H     -1.288779     0.818170    -0.687835
H     -1.632347    -0.796553    -0.061855
H     -1.087684     0.475357     1.038733
H      0.796445    -0.201164    -1.208379
H      0.608759    -1.418501     0.038985
H      1.679730     1.114455     0.311854
9
Iteration 3, Energy=-154.0877312562, |grad|=0.023146
C     -0.960333     0.062928     0.034771
C      0.498831    -0.353637    -0.166561
O      1.385412     0.299262     0.700114
H     -1.288689     0.818173    -0.687725
H     -1.632285    -0.796460    -0.061925
H     -1.087665     0.475269     1.038707
H      0.796453    -0.201234    -1.208415
H      0.608755    -1.418496     0.039031
H      1.679522     1.114196     0.312003
9
Iteration 4, Energy=-154.0877464458, |grad|=0.020527
C     -0.960463     0.062979     0.034764
C      0.498727    -0.353790    -0.166620
O      1.385676     0.299667     0.700011
H     -1.288594     0.818181    -0.687610
H     -1.632222    -0.796364    -0.062001
H     -1.087646     0.475174     1.038682
H      0.796460    -0.201312    -1.208453
H      0.608751    -1.418494     0.039084
H      1.679311     1.113959     0.312142
9
Iteration 0, Energy=-154.0306663298, |grad|=0.435388
C     -1.026538    -0.019406     0.023372
C      0.403046    -0.238717    -0.173884
O      1.360514     0.293529     0.807033
H     -1.265518     0.725991    -0.655433
H     -1.650592    -0.921221    -0.031354
H     -1.138553     0.570413     0.995975
H      0.734716    -0.046688    -1.308991
H      0.574076    -1.524817    -0.007801
H      1.814333     1.133878     0.417996
9
Iteration -1, Energy=-154.0877464458, |grad|=0.020527
C     -0.960463     0.062979     0.034764
C      0.498727    -0.353790    -0.166620
O      1.385676     0.299667     0.700011
H     -1.288594     0.818181    -0.687610
H     -1.632222    -0.796364    -0.062001
H     -1.087646     0.475174     1.038682
H      0.796460    -0.201312    -1.208453
H      0.608751    -1.418494     0.039084
H      1.679311     1.113959     0.312142
9
Iteration 0, Energy=-154.0877599853, |grad|=0.018008
C     -0.960598     0.063032     0.034759
C      0.498620    -0.353944    -0.166678
O      1.385945     0.300066     0.699909
H     -1.288488     0.818195    -0.687482
H     -1.632155    -0.796257    -0.062089
H     -1.087625     0.475067     1.038656
H      0.796467    -0.201402    -1.208496
H      0.608748    -1.418496     0.039147
H      1.679087     1.113739     0.312275
9
Iteration 1, Energy=-154.0877726559, |grad|=0.015494
C     -0.960748     0.063092     0.034755
C      0.498502    -0.354107    -0.166740
O      1.386234     0.300479     0.699800
H     -1.288361     0.818219    -0.687332
H     -1.632079    -0.796133    -0.062198
H     -1.087601     0.474938     1.038629
H      0.796473    -0.201513    -1.208548
H      0.608747    -1.418502     0.039227
H      1.678834     1.113528     0.312407
9
Iteration 2, Energy=-154.0877857250, |grad|=0.012800
C     -0.960934     0.063168     0.034753
C      0.498355    -0.354303    -0.166814
O      1.386587     0.300954     0.699669
H     -1.288187     0.818262    -0.687128
H     -1.631983    -0.795964    -0.062354
H     -1.087568     0.474757     1.038599
H      0.796479    -0.201675    -1.208619
H      0.608746    -1.418516     0.039345
H      1.678505     1.113316     0.312549
9
Iteration 3, Energy=-154.0878027976, |grad|=0.009583
C     -0.961247     0.063302     0.034756
C      0.498108    -0.354616    -0.166927
O      1.387167     0.301658     0.699455
H     -1.287845     0.818379    -0.686736
H     -1.631813    -0.795644    -0.062674
H     -1.087508     0.474398     1.038556
H      0.796485    -0.202009    -1.208757
H      0.608749    -1.418558     0.039595
H      1.677904     1.113091     0.312732
9
Iteration 4, Energy=-154.0878478735, |grad|=0.015610
C     -0.962768     0.064059     0.034871
C      0.496833    -0.356057    -0.167369
O      1.390023     0.304095     0.698342
H     -1.285374     0.819663    -0.684006
H     -1.630866    -0.793484    -0.065225
H     -1.087125     0.471715     1.038515
H      0.796432    -0.204689    -1.209733
H      0.608806    -1.419010     0.041659
H      1.674039     1.113707     0.312947
9
Iteration 0, Energy=-154.0152922903, |grad|=0.527420
C     -0.941402     0.095937     0.033540
C      0.416240    -0.334310    -0.237909
O      1.250592     0.367504     0.829577
H     -1.330075     0.774991    -0.799116
H     -1.663201    -0.872649     0.101702
H     -1.011181     0.572542     1.101836
H      0.830328    -0.205127    -1.158698
H      0.680820    -1.518378    -0.009749
H      1.929271     1.120346     0.329758
9
Iteration -1, Energy=-154.0878478735, |grad|=0.015610
C     -0.962768     0.064059     0.034871
C      0.496833    -0.356057    -0.167369
O      1.390023     0.304095     0.698342
H     -1.285374     0.819663    -0.684006
H     -1.630866    -0.793484    -0.065225
H     -1.087125     0.471715     1.038515
H      0.796432    -0.204689    -1.209733
H      0.608806    -1.419010     0.041659
H      1.674039     1.113707     0.312947
9
Iteration 0, Energy=-154.0878754493, |grad|=0.016286
C     -0.961130     0.063772     0.035048
C      0.497639    -0.355110    -0.166714
O      1.388426     0.300417     0.698280
H     -1.284781     0.821230    -0.683625
H     -1.631432    -0.793426    -0.066508
H     -1.087191     0.470849     1.039345
H      0.796164    -0.206016    -1.209813
H      0.608799    -1.419284     0.042732
H      1.673506     1.117569     0.311256
9
Iteration 1, Energy=-154.0878829389, |grad|=0.014599
C     -0.961124     0.063789     0.035041
C      0.497624    -0.355217    -0.166737
O      1.388575     0.300698     0.698143
H     -1.284722     0.821300    -0.683566
H     -1.631432    -0.793391    -0.066591
H     -1.087188     0.470781     1.039382
H      0.796153    -0.206096    -1.209816
H      0.608785    -1.419271     0.042784
H      1.673329     1.117408     0.311360
9
Iteration 2, Energy=-154.0878896624, |grad|=0.013043
C     -0.961115     0.063806     0.035034
C      0.497612    -0.355323    -0.166759
O      1.388723     0.300969     0.698003
H     -1.284656     0.821378    -0.683500
H     -1.631433    -0.793353    -0.066683
H     -1.087185     0.470706     1.039424
H      0.796140    -0.206186    -1.209820
H      0.608771    -1.419259     0.042844
H      1.673142     1.117263     0.311457
9
Iteration 3, Energy=-154.0878961979, |grad|=0.011541
C     -0.961103     0.063825     0.035027
C      0.497603    -0.355437    -0.166782
O      1.388883     0.301251     0.697849
H     -1.284575     0.821474    -0.683421
H     -1.631434    -0.793306    -0.066797
H     -1.087181     0.470613     1.039474
H      0.796124    -0.206298    -1.209826
H      0.608755    -1.419249     0.042919
H      1.672927     1.117127     0.311555
9
Iteration 4, Energy=-154.0879036469, |grad|=0.009963
C     -0.961083     0.063850     0.035020
C      0.497598    -0.355583    -0.166809
O      1.389084     0.301589     0.697646
H     -1.284455     0.821618    -0.683304
H     -1.631436    -0.793236    -0.066964
H     -1.087174     0.470475     1.039547
H      0.796101    -0.206464    -1.209835
H      0.608735    -1.419240     0.043034
H      1.672630     1.116991     0.311666
9
Iteration 0, Energy=-154.0063289158, |grad|=0.819170
C     -0.916094     0.073263     0.033846
C      0.507400    -0.239524    -0.129402
O      1.281255     0.243619     0.661935
H     -1.289453     0.751116    -0.682601
H     -1.574721    -0.931308     0.046763
H     -1.000941     0.510538     0.925907
H      0.873806    -0.144196    -1.305246
H      0.667745    -1.438680     0.027183
H      1.857234     1.008402     0.428972
9
Iteration -1, Energy=-154.0879036469, |grad|=0.009963
C     -0.961083     0.063850     0.035020
C      0.497598    -0.355583    -0.166809
O      1.389084     0.301589     0.697646
H     -1.284455     0.821618    -0.683304
H     -1.631436    -0.793236    -0.066964
H     -1.087174     0.470475     1.039547
H      0.796101    -0.206464    -1.209835
H      0.608735    -1.419240     0.043034
H      1.672630     1.116991     0.311666
9
Iteration 0, Energy=-154.0879164116, |grad|=0.008179
C     -0.961025     0.063904     0.035010
C      0.497606    -0.355871    -0.166859
O      1.389476     0.302185     0.697226
H     -1.284164     0.821971    -0.683024
H     -1.631444    -0.793067    -0.067372
H     -1.087158     0.470139     1.039722
H      0.796042    -0.206872    -1.209864
H      0.608694    -1.419235     0.043323
H      1.671972     1.116846     0.311837
9
Iteration 1, Energy=-154.0880605177, |grad|=0.037136
C     -0.958857     0.065044     0.035137
C      0.498874    -0.360862    -0.167310
O      1.396048     0.308099     0.688631
H     -1.275557     0.832578    -0.674908
H     -1.631818    -0.788082    -0.079475
H     -1.086625     0.460121     1.044734
H      0.794297    -0.219165    -1.211034
H      0.607916    -1.420025     0.052403
H      1.655722     1.122293     0.311823
9
Iteration 2, Energy=-154.0882071609, |grad|=0.008412
C     -0.958385     0.064901     0.035391
C      0.499066    -0.359422    -0.166682
O      1.394274     0.303056     0.689927
H     -1.275144     0.833181    -0.674598
H     -1.631925    -0.787864    -0.080095
H     -1.086567     0.459559     1.044823
H      0.794286    -0.219847    -1.211391
H      0.608103    -1.420583     0.053079
H      1.656293     1.127019     0.309545
9
Iteration 3, Energy=-154.0882883038, |grad|=0.037146
C     -0.954572     0.065805     0.036569
C      0.495547    -0.361344    -0.163746
O      1.400358     0.308677     0.682339
H     -1.268038     0.841969    -0.667950
H     -1.632538    -0.783906    -0.090347
H     -1.085911     0.450579     1.047612
H      0.794056    -0.229779    -1.214672
H      0.608007    -1.423028     0.060588
H      1.643090     1.131028     0.309609
9
Iteration 4, Energy=-154.0883231229, |grad|=0.036790
C     -0.957083     0.065896     0.035877
C      0.500751    -0.361575    -0.166577
O      1.396838     0.299422     0.685042
H     -1.266809     0.842696    -0.666703
H     -1.631995    -0.782772    -0.091448
H     -1.086018     0.449830     1.048887
H      0.792690    -0.231405    -1.212268
H      0.607798    -1.422068     0.061837
H      1.643827     1.139975     0.305352
9
Iteration 0, Energy=-154.0534028704, |grad|=0.349132
C     -0.927433     0.020955     0.048711
C      0.536581    -0.310966    -0.173281
O      1.274935     0.309066     0.712842
H     -1.318709     0.766781    -0.676874
H     -1.655768    -0.857767    -0.063087
H     -0.989004     0.684228     0.955752
H      0.861726    -0.044692    -1.303015
H      0.533609    -1.468341     0.025696
H      1.798280     1.016494     0.334386
9
Iteration -1, Energy=-154.0883231229, |grad|=0.036790
C     -0.957083     0.065896     0.035877
C      0.500751    -0.361575    -0.166577
O      1.396838     0.299422     0.685042
H     -1.266809     0.842696    -0.666703
H     -1.631995    -0.782772    -0.091448
H     -1.086018     0.449830     1.048887
H      0.792690    -0.231405    -1.212268
H      0.607798    -1.422068     0.061837
H      1.643827     1.139975     0.305352
9
Iteration 0, Energy=-154.0884799897, |grad|=0.008440
C     -0.956125     0.065914     0.035895
C      0.499500    -0.362737    -0.166133
O      1.399090     0.304858     0.682808
H     -1.266497     0.843430    -0.666416
H     -1.632236    -0.782729    -0.092141
H     -1.086034     0.449305     1.049182
H      0.792833    -0.231913    -1.212781
H      0.607654    -1.422058     0.062104
H      1.641817     1.135929     0.307481
9
Iteration 1, Energy=-154.0885638669, |grad|=0.021744
C     -0.952859     0.065739     0.036566
C      0.499476    -0.361918    -0.164287
O      1.399715     0.302665     0.679681
H     -1.262633     0.849022    -0.662982
H     -1.633131    -0.780793    -0.098120
H     -1.085943     0.444380     1.051421
H      0.792265    -0.237795    -1.214308
H      0.607649    -1.423464     0.066749
H      1.635462     1.142165     0.305281
9
Iteration 2, Energy=-154.0886267968, |grad|=0.009107
C     -0.954003     0.066263     0.036300
C      0.499831    -0.363994    -0.165379
O      1.401298     0.305898     0.678733
H     -1.261901     0.849263    -0.662112
H     -1.632753    -0.780182    -0.098803
H     -1.085905     0.443726     1.051686
H      0.791994    -0.238488    -1.213841
H      0.607459    -1.422836     0.067128
H      1.633980     1.140350     0.306288
9
Iteration 3, Energy=-154.0886620884, |grad|=0.022648
C     -0.954689     0.066574     0.036224
C      0.500977    -0.364857    -0.166102
O      1.401584     0.302968     0.678171
H     -1.258961     0.852044    -0.659201
H     -1.632331    -0.778069    -0.102451
H     -1.085766     0.440508     1.052981
H      0.791265    -0.242284    -1.213692
H      0.607449    -1.423025     0.070090
H      1.630473     1.146140     0.303981
9
Iteration 4, Energy=-154.0887264752, |grad|=0.008756
C     -0.953748     0.066637     0.036362
C      0.500156    -0.365450    -0.165582
O      1.402937     0.306445     0.676448
H     -1.258592     0.852822    -0.658875
H     -1.632613    -0.778031    -0.103217
H     -1.085776     0.439900     1.053229
H      0.791346    -0.242894    -1.214129
H      0.607366    -1.423143     0.070491
H      1.628924     1.143713     0.305273
9
Iteration 0, Energy=-154.0445792328, |grad|=0.356833
C     -0.993257    -0.003041    -0.039064
C      0.524460    -0.411020    -0.270208
O      1.213494     0.351981     0.786104
H     -1.447636     0.739395    -0.780810
H     -1.626196    -0.810092    -0.057415
H     -1.094547     0.691795     1.045855
H      0.883002    -0.137710    -1.219083
H      0.535677    -1.496495    -0.142229
H      1.775830     1.023069     0.454290
9
Iteration -1, Energy=-154.0887264752, |grad|=0.008756
C     -0.953748     0.066637     0.036362
C      0.500156    -0.365450    -0.165582
O      1.402937     0.306445     0.676448
H     -1.258592     0.852822    -0.658875
H     -1.632613    -0.778031    -0.103217
H     -1.085776     0.439900     1.053229
H      0.791346    -0.242894    -1.214129
H      0.607366    -1.423143     0.070491
H      1.628924     1.143713     0.305273
9
Iteration 0, Energy=-154.0887747640, |grad|=0.021601
C     -0.951856     0.066700     0.036848
C      0.500681    -0.364845    -0.164528
O      1.402821     0.303677     0.674608
H     -1.255818     0.856610    -0.656350
H     -1.633171    -0.776631    -0.107415
H     -1.085739     0.436390     1.054716
H      0.790822    -0.247005    -1.214828
H      0.607401    -1.424020     0.073766
H      1.624860     1.149124     0.303181
9
Iteration 1, Energy=-154.0888334635, |grad|=0.008825
C     -0.952278     0.066925     0.036658
C      0.500488    -0.366384    -0.165058
O      1.404383     0.307150     0.673424
H     -1.255220     0.857045    -0.655679
H     -1.632972    -0.776153    -0.108106
H     -1.085727     0.435777     1.055015
H      0.790687    -0.247657    -1.214712
H      0.607256    -1.423676     0.074149
H      1.623383     1.146973     0.304309
9
Iteration 2, Energy=-154.0888729849, |grad|=0.024231
C     -0.952335     0.067097     0.036707
C      0.501414    -0.366905    -0.165316
O      1.404740     0.304052     0.672495
H     -1.251941     0.860444    -0.652474
H     -1.632730    -0.773898    -0.112379
H     -1.085634     0.432043     1.056509
H      0.789939    -0.252002    -1.214887
H      0.607288    -1.424084     0.077586
H      1.619259     1.153252     0.301760
9
Iteration 3, Energy=-154.0889444279, |grad|=0.008478
C     -0.951684     0.067266     0.036796
C      0.500772    -0.367787    -0.165044
O      1.406127     0.307819     0.670796
H     -1.251539     0.861111    -0.652076
H     -1.632932    -0.773806    -0.113116
H     -1.085649     0.431443     1.056742
H      0.789963    -0.252590    -1.215166
H      0.607181    -1.424059     0.077949
H      1.617762     1.150603     0.303118
9
Iteration 4, Energy=-154.0890053955, |grad|=0.023526
C     -0.949677     0.067435     0.037325
C      0.501599    -0.367407    -0.164028
O      1.406193     0.305020     0.668331
H     -1.247953     0.865738    -0.648716
H     -1.633502    -0.771897    -0.118423
H     -1.085660     0.426963     1.058584
H      0.789214    -0.257752    -1.215808
H      0.607220    -1.424942     0.082060
H      1.612566     1.156843     0.300674
9
Iteration 0, Energy=-154.0398005283, |grad|=0.494104
C     -1.024591     0.035303     0.053189
C      0.467500    -0.263936    -0.288106
O      1.231341     0.306112     0.717291
H     -1.276012     0.722978    -0.735403
H     -1.612428    -0.936439     0.116537
H     -1.113416     0.584497     0.992802
H      0.836754    -0.051376    -1.175844
H      0.577641    -1.349296     0.040134
H      1.919475     1.069258     0.466209
9
Iteration -1, Energy=-154.0890053955, |grad|=0.023526
C     -0.949677     0.067435     0.037325
C      0.501599    -0.367407    -0.164028
O      1.406193     0.305020     0.668331
H     -1.247953     0.865738    -0.648716
H     -1.633502    -0.771897    -0.118423
H     -1.085660     0.426963     1.058584
H      0.789214    -0.257752    -1.215808
H      0.607220    -1.424942     0.082060
H      1.612566     1.156843     0.300674
9
Iteration 0, Energy=-154.0890731687, |grad|=0.008551
C     -0.950048     0.067620     0.037131
C      0.501250    -0.368982    -0.164508
O      1.407797     0.308765     0.667129
H     -1.247385     0.866158    -0.648071
H     -1.633296    -0.771420    -0.119087
H     -1.085657     0.426370     1.058867
H      0.789106    -0.258361    -1.215746
H      0.607084    -1.424598     0.082410
H      1.611148     1.154449     0.301873
9
Iteration 1, Energy=-154.0891234961, |grad|=0.025008
C     -0.950244     0.067786     0.037156
C      0.502035    -0.369816    -0.164850
O      1.408591     0.305867     0.665944
H     -1.243453     0.870102    -0.644169
H     -1.632902    -0.768624    -0.124161
H     -1.085600     0.421882     1.060564
H      0.788235    -0.263463    -1.215999
H      0.607161    -1.424998     0.086470
H      1.606176     1.161264     0.299045
9
Iteration 2, Energy=-154.0891994835, |grad|=0.008440
C     -0.949439     0.067993     0.037300
C      0.501438    -0.370618    -0.164479
O      1.409839     0.309756     0.664124
H     -1.243077     0.870792    -0.643798
H     -1.633184    -0.768610    -0.124915
H     -1.085633     0.421277     1.060783
H      0.788257    -0.264041    -1.216283
H      0.607053    -1.424994     0.086825
H      1.604745     1.158446     0.300442
9
Iteration 3, Energy=-154.0892579102, |grad|=0.022694
C     -0.947107     0.068154     0.037886
C      0.502475    -0.370001    -0.163295
O      1.409617     0.307145     0.661399
H     -1.239679     0.875327    -0.640596
H     -1.633929    -0.766923    -0.130097
H     -1.085753     0.416934     1.062582
H      0.787476    -0.268981    -1.216798
H      0.607106    -1.425820     0.090792
H      1.599792     1.164165     0.298127
9
Iteration 4, Energy=-154.0893220158, |grad|=0.008641
C     -0.947661     0.068304     0.037647
C      0.502064    -0.371682    -0.163881
O      1.411226     0.310811     0.660386
H     -1.239073     0.875703    -0.639897
H     -1.633621    -0.766343    -0.130750
H     -1.085749     0.416327     1.062856
H      0.787361    -0.269594    -1.216723
H      0.606984    -1.425433     0.091148
H      1.598469     1.161908     0.299213
9
Iteration 0, Energy=-154.0445534929, |grad|=0.466181
C     -0.989549     0.012477     0.103309
C      0.437927    -0.366904    -0.134035
O      1.314405     0.404893     0.787154
H     -1.300200     0.645845    -0.770409
H     -1.636704    -0.831820     0.113375
H     -1.039849     0.679573     1.100875
H      0.880774    -0.094526    -1.263808
H      0.587956    -1.337157    -0.079633
H      1.837153     1.019647     0.373746
9
Iteration -1, Energy=-154.0893220158, |grad|=0.008641
C     -0.947661     0.068304     0.037647
C      0.502064    -0.371682    -0.163881
O      1.411226     0.310811     0.660386
H     -1.239073     0.875703    -0.639897
H     -1.633621    -0.766343    -0.130750
H     -1.085749     0.416327     1.062856
H      0.787361    -0.269594    -1.216723
H      0.606984    -1.425433     0.091148
H      1.598469     1.161908     0.299213
9
Iteration 0, Energy=-154.0893624429, |grad|=0.023946
C     -0.948200     0.068399     0.037637
C      0.502442    -0.372458    -0.164284
O      1.412086     0.308033     0.659740
H     -1.235536     0.879002    -0.636322
H     -1.633061    -0.763668    -0.135180
H     -1.085723     0.412313     1.064203
H      0.786622    -0.274037    -1.217012
H      0.607138    -1.425763     0.094737
H      1.594231     1.168179     0.296481
9
Iteration 1, Energy=-154.0894329569, |grad|=0.008601
C     -0.947330     0.068632     0.037803
C      0.501994    -0.373186    -0.163879
O      1.413146     0.311859     0.657856
H     -1.235159     0.879716    -0.635947
H     -1.633394    -0.763690    -0.135966
H     -1.085773     0.411693     1.064438
H      0.786615    -0.274630    -1.217250
H      0.607026    -1.425761     0.095107
H      1.592874     1.165367     0.297837
9
Iteration 2, Energy=-154.0894748862, |grad|=0.021969
C     -0.945343     0.068720     0.038267
C      0.503254    -0.372478    -0.162917
O      1.412568     0.309122     0.655625
H     -1.232380     0.883461    -0.633304
H     -1.634070    -0.762331    -0.140256
H     -1.085960     0.408124     1.065979
H      0.785878    -0.278675    -1.217471
H      0.607083    -1.426370     0.098387
H      1.588970     1.170426     0.295689
9
Iteration 3, Energy=-154.0895349416, |grad|=0.008466
C     -0.945741     0.068854     0.038088
C      0.502714    -0.374019    -0.163364
O      1.414088     0.312717     0.654626
H     -1.231801     0.883859    -0.632639
H     -1.633808    -0.761795    -0.140912
H     -1.085963     0.407508     1.066213
H      0.785797    -0.279274    -1.217483
H      0.606984    -1.426047     0.098746
H      1.587729     1.168199     0.296725
9
Iteration 4, Energy=-154.0895766439, |grad|=0.024252
C     -0.946130     0.068951     0.038170
C      0.502840    -0.374687    -0.163582
O      1.415064     0.309993     0.653876
H     -1.228092     0.887315    -0.628862
H     -1.633262    -0.759009    -0.145600
H     -1.085984     0.403222     1.067521
H      0.785067    -0.283906    -1.217911
H      0.607203    -1.426450     0.102530
H      1.583295     1.174571     0.293858
9
Iteration 0, Energy=-154.0367385623, |grad|=0.505537
C     -0.881335     0.088988    -0.015203
C      0.534735    -0.233280    -0.187675
O      1.181588     0.408203     0.724692
H     -1.399995     0.656601    -0.819302
H     -1.666924    -0.856756     0.002697
H     -1.089182     0.538309     0.928035
H      0.739866    -0.061076    -1.236779
H      0.540494    -1.352124    -0.050184
H      1.798016     0.949391     0.476875
9
Iteration -1, Energy=-154.0895766439, |grad|=0.024252
C     -0.946130     0.068951     0.038170
C      0.502840    -0.374687    -0.163582
O      1.415064     0.309993     0.653876
H     -1.228092     0.887315    -0.628862
H     -1.633262    -0.759009    -0.145600
H     -1.085984     0.403222     1.067521
H      0.785067    -0.283906    -1.217911
H      0.607203    -1.426450     0.102530
H      1.583295     1.174571     0.293858
9
Iteration 0, Energy=-154.0896484542, |grad|=0.008322
C     -0.945368     0.069187     0.038295
C      0.502535    -0.375487    -0.163270
O      1.416025     0.313842     0.652016
H     -1.227717     0.887989    -0.628474
H     -1.633566    -0.759008    -0.146363
H     -1.086049     0.402626     1.067777
H      0.785025    -0.284478    -1.218056
H      0.607080    -1.426388     0.102877
H      1.582034     1.171716     0.295198
9
Iteration 1, Energy=-154.0896988761, |grad|=0.021695
C     -0.943151     0.069265     0.038751
C      0.504152    -0.374866    -0.162292
O      1.415391     0.311363     0.649254
H     -1.224613     0.892166    -0.625470
H     -1.634337    -0.757474    -0.151188
H     -1.086349     0.398628     1.069563
H      0.784125    -0.288961    -1.218108
H      0.607125    -1.426912     0.106514
H      1.577656     1.176792     0.292977
9
Iteration 2, Energy=-154.0897103352, |grad|=0.019513
C     -0.943198     0.069278     0.038733
C      0.504080    -0.375028    -0.162338
O      1.415550     0.311731     0.649165
H     -1.224552     0.892203    -0.625399
H     -1.634305    -0.757415    -0.151254
H     -1.086349     0.398563     1.069581
H      0.784119    -0.289022    -1.218115
H      0.607118    -1.426880     0.106551
H      1.577536     1.176568     0.293076
9
Iteration 3, Energy=-154.0897201719, |grad|=0.017500
C     -0.943245     0.069290     0.038717
C      0.504011    -0.375183    -0.162383
O      1.415705     0.312079     0.649079
H     -1.224488     0.892243    -0.625325
H     -1.634273    -0.757353    -0.151325
H     -1.086349     0.398494     1.069601
H      0.784112    -0.289087    -1.218123
H      0.607111    -1.426849     0.106592
H      1.577415     1.176365     0.293167
9
Iteration 4, Energy=-154.0897287980, |grad|=0.015620
C     -0.943291     0.069303     0.038701
C      0.503943    -0.375336    -0.162426
O      1.415857     0.312413     0.648994
H     -1.224418     0.892289    -0.625246
H     -1.634240    -0.757287    -0.151403
H     -1.086349     0.398418     1.069623
H      0.784105    -0.289159    -1.218132
H      0.607104    -1.426820     0.106640
H      1.577288     1.176178     0.293249
9
Iteration 0, Energy=-154.0238399606, |grad|=0.571406
C     -0.869540    -0.004296     0.109028
C      0.399054    -0.385765    -0.234922
O      1.204642     0.299470     0.728446
H     -1.282745     0.694040    -0.828011
H     -1.587602    -0.918040     0.092769
H     -1.025565     0.532441     1.103080
H      0.822659    -0.082672    -1.219038
H      0.666289    -1.336430    -0.062358
H      1.904344     0.949838     0.395132
9
Iteration -1, Energy=-154.0897287980, |grad|=0.015620
C     -0.943291     0.069303     0.038701
C      0.503943    -0.375336    -0.162426
O      1.415857     0.312413     0.648994
H     -1.224418     0.892289    -0.625246
H     -1.634240    -0.757287    -0.151403
H     -1.086349     0.398418     1.069623
H      0.784105    -0.289159    -1.218132
H      0.607104    -1.426820     0.106640
H      1.577288     1.176178     0.293249
9
Iteration 0, Energy=-154.0897366411, |grad|=0.013825
C     -0.943339     0.069316     0.038685
C      0.503874    -0.375491    -0.162470
O      1.416014     0.312747     0.648906
H     -1.224339     0.892343    -0.625156
H     -1.634206    -0.757214    -0.151493
H     -1.086349     0.398331     1.069647
H      0.784095    -0.289243    -1.218142
H      0.607099    -1.426792     0.106697
H      1.577150     1.176003     0.293327
9
Iteration 1, Energy=-154.0897442614, |grad|=0.012036
C     -0.943392     0.069330     0.038669
C      0.503798    -0.375663    -0.162518
O      1.416189     0.313102     0.648807
H     -1.224241     0.892413    -0.625047
H     -1.634167    -0.757125    -0.151606
H     -1.086349     0.398223     1.069677
H      0.784083    -0.289349    -1.218155
H      0.607094    -1.426763     0.106771
H      1.576985     1.175831     0.293402
9
Iteration 2, Energy=-154.0897527643, |grad|=0.010103
C     -0.943459     0.069349     0.038650
C      0.503701    -0.375882    -0.162578
O      1.416415     0.313539     0.648675
H     -1.224094     0.892522    -0.624885
H     -1.634115    -0.756997    -0.151777
H     -1.086350     0.398059     1.069722
H      0.784063    -0.289510    -1.218175
H      0.607089    -1.426730     0.106887
H      1.576750     1.175649     0.293480
9
Iteration 3, Energy=-154.0897664078, |grad|=0.007886
C     -0.943586     0.069390     0.038619
C      0.503518    -0.376303    -0.162687
O      1.416863     0.314317     0.648402
H     -1.223740     0.892801    -0.624501
H     -1.634010    -0.756699    -0.152200
H     -1.086354     0.397658     1.069831
H      0.784012    -0.289912    -1.218224
H      0.607085    -1.426677     0.107187
H      1.576212     1.175424     0.293573
9
Iteration 4, Energy=-154.0898470036, |grad|=0.041664
C     -0.945081     0.070340     0.038619
C      0.500735    -0.383325    -0.163911
O      1.425186     0.323387     0.641921
H     -1.212540     0.902754    -0.612693
H     -1.632017    -0.748128    -0.166333
H     -1.086594     0.384561     1.073457
H      0.782135    -0.303382    -1.219877
H      0.607411    -1.426702     0.117805
H      1.560764     1.180494     0.291013
9
Iteration 0, Energy=-154.0584241524, |grad|=0.454457
C     -0.965040     0.105474     0.059883
C      0.564961    -0.330706    -0.157729
O      1.292486     0.378128     0.827483
H     -1.331692     0.760380    -0.662710
H     -1.545509    -0.846237     0.120218
H     -0.989393     0.530890     0.957988
H      0.867746    -0.155064    -1.166030
H      0.683257    -1.389400    -0.069938
H      1.774876     0.961984     0.409683
9
Iteration -1, Energy=-154.0898470036, |grad|=0.041664
C     -0.945081     0.070340     0.038619
C      0.500735    -0.383325    -0.163911
O      1.425186     0.323387     0.641921
H     -1.212540     0.902754    -0.612693
H     -1.632017    -0.748128    -0.166333
H     -1.086594     0.384561     1.073457
H      0.782135    -0.303382    -1.219877
H      0.607411    -1.426702     0.117805
H      1.560764     1.180494     0.291013
9
Iteration 0, Energy=-154.0900429026, |grad|=0.013333
C     -0.943281     0.070312     0.039130
C      0.502198    -0.380908    -0.162748
O      1.422972     0.318680     0.641649
H     -1.212440     0.903660    -0.612753
H     -1.632940    -0.748669    -0.167050
H     -1.086737     0.384150     1.073747
H      0.781952    -0.303954    -1.219838
H      0.607497    -1.427365     0.118424
H      1.560780     1.184094     0.289438
9
Iteration 1, Energy=-154.0900895934, |grad|=0.009493
C     -0.940621     0.070335     0.039609
C      0.504180    -0.379302    -0.161319
O      1.421077     0.317384     0.639204
H     -1.211905     0.905477    -0.612354
H     -1.634208    -0.749120    -0.168692
H     -1.087052     0.383086     1.074607
H      0.781532    -0.305246    -1.219572
H      0.607402    -1.427739     0.119484
H      1.559595     1.185125     0.289033
9
Iteration 2, Energy=-154.0901050080, |grad|=0.007407
C     -0.940715     0.070293     0.039487
C      0.504162    -0.379976    -0.161600
O      1.421506     0.318270     0.638845
H     -1.211480     0.905896    -0.611887
H     -1.634086    -0.748734    -0.169234
H     -1.087112     0.382612     1.074879
H      0.781388    -0.305758    -1.219439
H      0.607371    -1.427521     0.119850
H      1.558965     1.184917     0.289100
9
Iteration 3, Energy=-154.0904247781, |grad|=0.038028
C     -0.938664     0.069405     0.038301
C      0.505826    -0.393038    -0.165650
O      1.430651     0.325985     0.625588
H     -1.190047     0.928256    -0.589181
H     -1.631830    -0.732371    -0.198159
H     -1.089592     0.357046     1.085503
H      0.775414    -0.332921    -1.217561
H      0.607749    -1.424622     0.141234
H      1.530492     1.202259     0.279925
9
Iteration 4, Energy=-154.0906552974, |grad|=0.011392
C     -0.935879     0.070877     0.040301
C      0.505389    -0.388130    -0.161384
O      1.429109     0.325744     0.622861
H     -1.189709     0.928749    -0.588927
H     -1.633529    -0.733617    -0.199357
H     -1.089390     0.355911     1.084153
H      0.776107    -0.333605    -1.219994
H      0.608106    -1.427291     0.142155
H      1.529796     1.201362     0.280191
9
Iteration 0, Energy=-154.0256288014, |grad|=0.604876
C     -1.035320    -0.009278     0.049209
C      0.511006    -0.408697    -0.259217
O      1.273800     0.421426     0.761630
H     -1.396788     0.815490    -0.760529
H     -1.517463    -0.891758    -0.000407
H     -1.133845     0.557202     1.022130
H      0.781387    -0.058176    -1.137856
H      0.666907    -1.348659    -0.081190
H      1.889711     1.044816     0.487395
