9
Iteration -1, Energy=-154.0755898230, |grad|=0.101891
C     -0.965758     0.024365     0.078058
C      0.476549    -0.352313    -0.187486
O      1.240127     0.406973     0.730133
H     -1.346439     0.692879    -0.702929
H     -1.532631    -0.889537    -0.026189
H     -1.128733     0.557197     1.039330
H      0.782901    -0.173305    -1.241878
H      0.536037    -1.457373    -0.062041
H      1.794490     1.066840     0.341698
9
Iteration 0, Energy=-154.0810466359, |grad|=0.102476
C     -0.992467     0.041620     0.044729
C      0.479226    -0.334243    -0.187641
O      1.264545     0.381972     0.736415
H     -1.346073     0.696760    -0.699939
H     -1.559540    -0.893641    -0.011230
H     -1.118004     0.527315     1.023222
H      0.775502    -0.170370    -1.220538
H      0.564273    -1.429249    -0.044056
H      1.789080     1.055562     0.327735
9
Iteration 1, Energy=-154.0825578590, |grad|=0.093374
C     -0.979453     0.013332     0.057275
C      0.465432    -0.334690    -0.174195
O      1.277396     0.374920     0.734708
H     -1.359785     0.719362    -0.722753
H     -1.568875    -0.885894    -0.007844
H     -1.116431     0.518087     1.017697
H      0.778658    -0.164059    -1.224276
H      0.574687    -1.415585    -0.035766
H      1.784913     1.050252     0.323852
9
Iteration 2, Energy=-154.0842205591, |grad|=0.040089
C     -0.989607     0.029665     0.043035
C      0.474610    -0.333610    -0.178869
O      1.279289     0.367383     0.737318
H     -1.357088     0.713168    -0.715059
H     -1.576664    -0.889363    -0.006009
H     -1.115626     0.512851     1.017745
H      0.776227    -0.162417    -1.217899
H      0.580498    -1.413124    -0.030485
H      1.784903     1.051172     0.318919
9
Iteration 3, Energy=-154.0848924154, |grad|=0.041626
C     -0.990771     0.024931     0.039392
C      0.471156    -0.331502    -0.176662
O      1.291309     0.365330     0.735239
H     -1.360901     0.718165    -0.718780
H     -1.584663    -0.884915    -0.004301
H     -1.114901     0.505668     1.015379
H      0.777127    -0.158266    -1.215896
H      0.588927    -1.408892    -0.022790
H      1.779260     1.045207     0.317115
9
Iteration 4, Energy=-154.0851324940, |grad|=0.053007
C     -0.993492     0.029290     0.036214
C      0.475237    -0.331362    -0.175933
O      1.289544     0.352228     0.738699
H     -1.362257     0.718962    -0.718545
H     -1.591838    -0.884204    -0.003860
H     -1.114727     0.500115     1.013524
H      0.777073    -0.155532    -1.213259
H      0.594739    -1.405356    -0.017137
H      1.782264     1.051583     0.308995
9
Iteration 0, Energy=-153.8995596613, |grad|=1.158287
C     -1.109201     0.167184     0.176117
C      0.664661    -0.274771    -0.264009
O      1.113449     0.476172     0.789718
H     -1.359585     0.621964    -0.593086
H     -1.675273    -0.884310    -0.021051
H     -1.139502     0.577056     1.207710
H      0.642239    -0.171352    -1.130882
H      0.533333    -1.505453     0.032901
H      1.908746     0.985937     0.521998
9
Iteration -1, Energy=-154.0851324940, |grad|=0.053007
C     -0.993492     0.029290     0.036214
C      0.475237    -0.331362    -0.175933
O      1.289544     0.352228     0.738699
H     -1.362257     0.718962    -0.718545
H     -1.591838    -0.884204    -0.003860
H     -1.114727     0.500115     1.013524
H      0.777073    -0.155532    -1.213259
H      0.594739    -1.405356    -0.017137
H      1.782264     1.051583     0.308995
9
Iteration 0, Energy=-154.0852063539, |grad|=0.047713
C     -0.993487     0.029073     0.036118
C      0.475032    -0.331449    -0.175919
O      1.290342     0.352781     0.738364
H     -1.362372     0.719124    -0.718650
H     -1.592072    -0.884024    -0.003866
H     -1.114742     0.499945     1.013524
H      0.777132    -0.155404    -1.213206
H      0.594955    -1.405291    -0.016928
H      1.781753     1.050969     0.309260
9
Iteration 1, Energy=-154.0852697796, |grad|=0.042853
C     -0.993486     0.028864     0.036020
C      0.474843    -0.331525    -0.175898
O      1.291111     0.353274     0.738047
H     -1.362489     0.719287    -0.718755
H     -1.592322    -0.883839    -0.003874
H     -1.114757     0.499763     1.013521
H      0.777192    -0.155272    -1.213148
H      0.595185    -1.405224    -0.016706
H      1.781264     1.050396     0.309491
9
Iteration 2, Energy=-154.0853256617, |grad|=0.038335
C     -0.993489     0.028657     0.035915
C      0.474666    -0.331594    -0.175871
O      1.291873     0.353719     0.737739
H     -1.362613     0.719459    -0.718862
H     -1.592597    -0.883646    -0.003884
H     -1.114774     0.499562     1.013514
H      0.777254    -0.155131    -1.213084
H      0.595437    -1.405150    -0.016461
H      1.780785     1.049849     0.309690
9
Iteration 3, Energy=-154.0853772269, |grad|=0.034017
C     -0.993499     0.028442     0.035796
C      0.474493    -0.331657    -0.175835
O      1.292667     0.354128     0.737427
H     -1.362749     0.719648    -0.718976
H     -1.592917    -0.883431    -0.003897
H     -1.114793     0.499329     1.013503
H      0.777321    -0.154971    -1.213007
H      0.595727    -1.405067    -0.016177
H      1.780293     1.049305     0.309863
9
Iteration 4, Energy=-154.0854291625, |grad|=0.029655
C     -0.993519     0.028197     0.035647
C      0.474311    -0.331720    -0.175783
O      1.293577     0.354521     0.737081
H     -1.362918     0.719879    -0.719111
H     -1.593332    -0.883166    -0.003916
H     -1.114818     0.499027     1.013485
H      0.777404    -0.154771    -1.212906
H      0.596100    -1.404960    -0.015811
H      1.779737     1.048718     0.310011
9
Iteration 0, Energy=-153.9172664130, |grad|=0.976669
C     -0.881195     0.131534    -0.036643
C      0.441414    -0.305265    -0.402801
O      1.370093     0.495506     0.772188
H     -1.187972     0.837598    -0.440316
H     -1.587398    -0.956219     0.069094
H     -1.163958     0.739528     1.115849
H      0.626187    -0.121736    -1.375537
H      0.583557    -1.307560    -0.117907
H      1.888266     1.246472     0.424988
9
Iteration -1, Energy=-154.0854291625, |grad|=0.029655
C     -0.993519     0.028197     0.035647
C      0.474311    -0.331720    -0.175783
O      1.293577     0.354521     0.737081
H     -1.362918     0.719879    -0.719111
H     -1.593332    -0.883166    -0.003916
H     -1.114818     0.499027     1.013485
H      0.777404    -0.154771    -1.212906
H      0.596100    -1.404960    -0.015811
H      1.779737     1.048718     0.310011
9
Iteration 0, Energy=-154.0854923807, |grad|=0.024742
C     -0.993565     0.027857     0.035410
C      0.474086    -0.331792    -0.175688
O      1.294869     0.354928     0.736615
H     -1.363179     0.720236    -0.719309
H     -1.594015    -0.882753    -0.003953
H     -1.114859     0.498529     1.013447
H      0.777531    -0.154453    -1.212737
H      0.596709    -1.404787    -0.015210
H      1.778965     1.047960     0.310121
9
Iteration 1, Energy=-154.0856222440, |grad|=0.019684
C     -0.993776     0.027006     0.034655
C      0.473656    -0.331918    -0.175341
O      1.298289     0.355261     0.735516
H     -1.363971     0.721315    -0.719857
H     -1.596294    -0.881486    -0.004103
H     -1.114998     0.496872     1.013292
H      0.777916    -0.153444    -1.212157
H      0.598706    -1.404219    -0.013225
H      1.777014     1.046339     0.309917
9
Iteration 2, Energy=-154.0860653244, |grad|=0.028904
C     -0.996247     0.025855     0.029850
C      0.475659    -0.331616    -0.172537
O      1.309095     0.342127     0.734697
H     -1.368210     0.727078    -0.721704
H     -1.612568    -0.874236    -0.005822
H     -1.116119     0.485133     1.011822
H      0.780077    -0.147197    -1.207756
H      0.612332    -1.400351     0.000521
H      1.772523     1.048933     0.299625
9
Iteration 3, Energy=-154.0860885674, |grad|=0.025447
C     -0.996267     0.025897     0.029820
C      0.475616    -0.331807    -0.172562
O      1.309522     0.342548     0.734469
H     -1.368195     0.727102    -0.721652
H     -1.612698    -0.874170    -0.005905
H     -1.116158     0.485053     1.011852
H      0.780113    -0.147177    -1.207717
H      0.612398    -1.400342     0.000594
H      1.772210     1.048622     0.299798
9
Iteration 4, Energy=-154.0861075985, |grad|=0.022338
C     -0.996286     0.025936     0.029793
C      0.475580    -0.331987    -0.172582
O      1.309926     0.342927     0.734255
H     -1.368178     0.727129    -0.721600
H     -1.612836    -0.874099    -0.005993
H     -1.116198     0.484968     1.011882
H      0.780151    -0.147158    -1.207677
H      0.612470    -1.400338     0.000674
H      1.771913     1.048346     0.299945
9
Iteration 0, Energy=-153.8223675555, |grad|=1.351276
C     -1.123319     0.237148     0.261703
C      0.350108    -0.522007    -0.428787
O      1.035102     0.370898     0.769954
H     -1.458736     0.735502    -0.594643
H     -1.546896    -1.110021    -0.032239
H     -1.115329     0.633462     1.165570
H      0.676713    -0.304830    -1.185049
H      0.424763    -1.591279     0.031179
H      1.673058     1.001765     0.244572
9
Iteration -1, Energy=-154.0861075985, |grad|=0.022338
C     -0.996286     0.025936     0.029793
C      0.475580    -0.331987    -0.172582
O      1.309926     0.342927     0.734255
H     -1.368178     0.727129    -0.721600
H     -1.612836    -0.874099    -0.005993
H     -1.116198     0.484968     1.011882
H      0.780151    -0.147158    -1.207677
H      0.612470    -1.400338     0.000674
H      1.771913     1.048346     0.299945
9
Iteration 0, Energy=-154.0861234921, |grad|=0.019522
C     -0.996306     0.025973     0.029767
C      0.475553    -0.332160    -0.172598
O      1.310315     0.343273     0.734049
H     -1.368160     0.727161    -0.721545
H     -1.612983    -0.874020    -0.006089
H     -1.116242     0.484876     1.011915
H      0.780191    -0.147140    -1.207634
H      0.612550    -1.400338     0.000763
H      1.771625     1.048100     0.300069
9
Iteration 1, Energy=-154.0861372850, |grad|=0.016924
C     -0.996326     0.026010     0.029741
C      0.475534    -0.332335    -0.172610
O      1.310708     0.343598     0.733842
H     -1.368140     0.727201    -0.721485
H     -1.613150    -0.873930    -0.006198
H     -1.116292     0.484772     1.011953
H      0.780235    -0.147123    -1.207586
H      0.612642    -1.400342     0.000866
H      1.771332     1.047875     0.300173
9
Iteration 2, Energy=-154.0861502189, |grad|=0.014422
C     -0.996349     0.026048     0.029714
C      0.475522    -0.332527    -0.172618
O      1.311140     0.343922     0.733617
H     -1.368114     0.727253    -0.721412
H     -1.613358    -0.873814    -0.006335
H     -1.116355     0.484641     1.012000
H      0.780288    -0.147104    -1.207527
H      0.612760    -1.400354     0.001000
H      1.771008     1.047661     0.300259
9
Iteration 3, Energy=-154.0861647116, |grad|=0.011789
C     -0.996380     0.026097     0.029681
C      0.475525    -0.332785    -0.172618
O      1.311720     0.344295     0.733318
H     -1.368072     0.727342    -0.721302
H     -1.613683    -0.873630    -0.006553
H     -1.116452     0.484435     1.012074
H      0.780370    -0.147082    -1.207436
H      0.612947    -1.400383     0.001215
H      1.770568     1.047434     0.300318
9
Iteration 4, Energy=-154.0861926465, |grad|=0.009503
C     -0.996459     0.026199     0.029607
C      0.475614    -0.333438    -0.172565
O      1.313199     0.344959     0.732575
H     -1.367932     0.727659    -0.720961
H     -1.614722    -0.873022    -0.007262
H     -1.116767     0.483770     1.012315
H      0.780623    -0.147036    -1.207152
H      0.613563    -1.400513     0.001929
H      1.769422     1.047148     0.300212
9
Iteration 0, Energy=-153.8832310866, |grad|=0.966638
C     -0.800942     0.122176     0.104592
C      0.341647    -0.410257    -0.305669
O      1.338424     0.552720     0.861652
H     -1.303046     0.592484    -0.771660
H     -1.637945    -1.019701    -0.087235
H     -1.323623     0.391356     0.973084
H      0.619388    -0.180695    -1.132538
H      0.646093    -1.454476     0.119098
H      1.885404     1.115581     0.187560
9
Iteration -1, Energy=-154.0861926465, |grad|=0.009503
C     -0.996459     0.026199     0.029607
C      0.475614    -0.333438    -0.172565
O      1.313199     0.344959     0.732575
H     -1.367932     0.727659    -0.720961
H     -1.614722    -0.873022    -0.007262
H     -1.116767     0.483770     1.012315
H      0.780623    -0.147036    -1.207152
H      0.613563    -1.400513     0.001929
H      1.769422     1.047148     0.300212
9
Iteration 0, Energy=-154.0863690931, |grad|=0.020969
C     -0.996692     0.025883     0.029699
C      0.478456    -0.336518    -0.170562
O      1.320479     0.339180     0.729518
H     -1.366072     0.732208    -0.717442
H     -1.626330    -0.865708    -0.015703
H     -1.120366     0.476075     1.015197
H      0.783285    -0.147397    -1.204195
H      0.620847    -1.403004     0.010614
H      1.762935     1.055006     0.291570
9
Iteration 1, Energy=-154.0863814176, |grad|=0.018421
C     -0.996667     0.025861     0.029703
C      0.478386    -0.336621    -0.170541
O      1.320755     0.339516     0.729339
H     -1.366016     0.732279    -0.717405
H     -1.626365    -0.865670    -0.015783
H     -1.120387     0.476020     1.015233
H      0.783297    -0.147453    -1.204196
H      0.620854    -1.402999     0.010637
H      1.762685     1.054794     0.291709
9
Iteration 2, Energy=-154.0863913345, |grad|=0.016177
C     -0.996642     0.025840     0.029708
C      0.478323    -0.336716    -0.170518
O      1.321009     0.339817     0.729174
H     -1.365958     0.732352    -0.717365
H     -1.626401    -0.865631    -0.015866
H     -1.120409     0.475962     1.015270
H      0.783307    -0.147514    -1.204196
H      0.620863    -1.402996     0.010663
H      1.762450     1.054612     0.291827
9
Iteration 3, Energy=-154.0863994860, |grad|=0.014190
C     -0.996618     0.025820     0.029715
C      0.478267    -0.336805    -0.170494
O      1.321248     0.340090     0.729018
H     -1.365894     0.732429    -0.717322
H     -1.626440    -0.865590    -0.015955
H     -1.120433     0.475899     1.015308
H      0.783317    -0.147580    -1.204195
H      0.620874    -1.402995     0.010693
H      1.762222     1.054457     0.291927
9
Iteration 4, Energy=-154.0864064559, |grad|=0.012402
C     -0.996592     0.025799     0.029724
C      0.478215    -0.336892    -0.170466
O      1.321479     0.340346     0.728865
H     -1.365823     0.732514    -0.717273
H     -1.626483    -0.865545    -0.016053
H     -1.120458     0.475829     1.015351
H      0.783326    -0.147655    -1.204192
H      0.620887    -1.402996     0.010729
H      1.761992     1.054324     0.292013
9
Iteration 0, Energy=-153.8525055751, |grad|=1.160871
C     -0.980966    -0.026073     0.200998
C      0.490900    -0.270119    -0.318461
O      1.107832     0.300093     0.678363
H     -1.180888     0.570427    -0.531391
H     -1.419785    -0.855392     0.110027
H     -1.303618     0.519673     1.010169
H      0.588800    -0.280698    -1.184276
H      0.477786    -1.637877    -0.176291
H      1.988270     1.097874     0.506679
9
Iteration -1, Energy=-154.0864064559, |grad|=0.012402
C     -0.996592     0.025799     0.029724
C      0.478215    -0.336892    -0.170466
O      1.321479     0.340346     0.728865
H     -1.365823     0.732514    -0.717273
H     -1.626483    -0.865545    -0.016053
H     -1.120458     0.475829     1.015351
H      0.783326    -0.147655    -1.204192
H      0.620887    -1.402996     0.010729
H      1.761992     1.054324     0.292013
9
Iteration 0, Energy=-154.0864128844, |grad|=0.010729
C     -0.996563     0.025777     0.029736
C      0.478164    -0.336983    -0.170433
O      1.321723     0.340602     0.728703
H     -1.365736     0.732617    -0.717213
H     -1.626535    -0.865491    -0.016173
H     -1.120489     0.475743     1.015402
H      0.783335    -0.147747    -1.204187
H      0.620905    -1.403001     0.010776
H      1.761739     1.054207     0.292086
9
Iteration 1, Energy=-154.0864198603, |grad|=0.009035
C     -0.996523     0.025749     0.029755
C      0.478107    -0.337097    -0.170383
O      1.322024     0.340898     0.728501
H     -1.365605     0.732766    -0.717123
H     -1.626613    -0.865412    -0.016350
H     -1.120535     0.475616     1.015476
H      0.783345    -0.147886    -1.204177
H      0.620932    -1.403012     0.010849
H      1.761408     1.054102     0.292149
9
Iteration 2, Energy=-154.0864317446, |grad|=0.007279
C     -0.996431     0.025690     0.029808
C      0.478017    -0.337332    -0.170257
O      1.322631     0.341415     0.728088
H     -1.365264     0.733146    -0.716885
H     -1.626811    -0.865211    -0.016805
H     -1.120650     0.475285     1.015664
H      0.783363    -0.148248    -1.204144
H      0.621009    -1.403052     0.011050
H      1.760677     1.054033     0.292178
9
Iteration 3, Energy=-154.0867373606, |grad|=0.056741
C     -0.991133     0.023552     0.034178
C      0.478725    -0.346986    -0.161473
O      1.345042     0.347437     0.711883
H     -1.339532     0.760333    -0.698627
H     -1.641200    -0.851063    -0.050268
H     -1.128879     0.450507     1.029213
H      0.783444    -0.175708    -1.200732
H      0.627278    -1.407672     0.027716
H      1.722797     1.075323     0.276805
9
Iteration 4, Energy=-154.0870662335, |grad|=0.009777
C     -0.991932     0.024898     0.033969
C      0.480784    -0.345973    -0.162199
O      1.340858     0.340734     0.714567
H     -1.338834     0.760296    -0.697748
H     -1.640826    -0.851020    -0.050761
H     -1.128798     0.449867     1.029375
H      0.782929    -0.176238    -1.200431
H      0.627283    -1.408301     0.028804
H      1.725080     1.081461     0.273121
9
Iteration 0, Energy=-153.9364186563, |grad|=0.668589
C     -0.960089     0.104161     0.197851
C      0.451727    -0.394304    -0.316227
O      1.336162     0.538018     0.694710
H     -1.190393     0.508050    -0.747715
H     -1.503028    -1.083092     0.156271
H     -1.293258     0.378948     1.203551
H      0.711754    -0.024146    -1.260615
H      0.365016    -1.667555     0.001825
H      1.656763     1.249770     0.325583
9
Iteration -1, Energy=-154.0870662335, |grad|=0.009777
C     -0.991932     0.024898     0.033969
C      0.480784    -0.345973    -0.162199
O      1.340858     0.340734     0.714567
H     -1.338834     0.760296    -0.697748
H     -1.640826    -0.851020    -0.050761
H     -1.128798     0.449867     1.029375
H      0.782929    -0.176238    -1.200431
H      0.627283    -1.408301     0.028804
H      1.725080     1.081461     0.273121
9
Iteration 0, Energy=-154.0871209562, |grad|=0.013986
C     -0.992615     0.027621     0.033157
C      0.482232    -0.348032    -0.164038
O      1.341037     0.342301     0.712135
H     -1.336705     0.761958    -0.695274
H     -1.639058    -0.850293    -0.053147
H     -1.128526     0.447343     1.030625
H      0.781908    -0.177948    -1.200939
H      0.626445    -1.409920     0.032362
H      1.721825     1.082696     0.273817
9
Iteration 1, Energy=-154.0871438983, |grad|=0.018245
C     -0.990224     0.025368     0.034122
C      0.480749    -0.347330    -0.162664
O      1.339664     0.339351     0.712509
H     -1.336356     0.764882    -0.695567
H     -1.638378    -0.849426    -0.054738
H     -1.128333     0.446125     1.031403
H      0.781924    -0.179283    -1.202521
H      0.626095    -1.410542     0.034121
H      1.721402     1.086580     0.272032
9
Iteration 2, Energy=-154.0871898617, |grad|=0.009088
C     -0.990726     0.026580     0.033658
C      0.481136    -0.348498    -0.163385
O      1.341202     0.341864     0.711187
H     -1.335633     0.765071    -0.694600
H     -1.638212    -0.849446    -0.055474
H     -1.128186     0.445383     1.031672
H      0.781613    -0.179994    -1.202317
H      0.625786    -1.410425     0.034758
H      1.719562     1.085190     0.273198
9
Iteration 3, Energy=-154.0872198585, |grad|=0.021066
C     -0.990459     0.027422     0.033444
C      0.482255    -0.348401    -0.163678
O      1.340042     0.338890     0.710952
H     -1.333524     0.767758    -0.692451
H     -1.637377    -0.848634    -0.058526
H     -1.127637     0.442629     1.032854
H      0.780789    -0.183076    -1.202816
H      0.625034    -1.411096     0.037847
H      1.717421     1.090231     0.271071
9
Iteration 4, Energy=-154.0872747886, |grad|=0.008420
C     -0.990037     0.027302     0.033471
C      0.481517    -0.349373    -0.163572
O      1.341934     0.341767     0.709441
H     -1.333205     0.768536    -0.692159
H     -1.637265    -0.848434    -0.059221
H     -1.127547     0.442068     1.033136
H      0.780808    -0.183659    -1.203123
H      0.624785    -1.410977     0.038290
H      1.715552     1.088495     0.272433
9
Iteration 0, Energy=-153.9567896147, |grad|=0.685875
C     -0.897496     0.176036     0.061397
C      0.566619    -0.323388    -0.127865
O      1.256890     0.315082     0.779958
H     -1.286865     0.771312    -0.835834
H     -1.701265    -0.941480    -0.132832
H     -1.101618     0.446244     1.135644
H      0.676851    -0.298371    -1.071414
H      0.332138    -1.499547    -0.074225
H      1.828319     1.241593     0.486642
9
Iteration -1, Energy=-154.0872747886, |grad|=0.008420
C     -0.990037     0.027302     0.033471
C      0.481517    -0.349373    -0.163572
O      1.341934     0.341767     0.709441
H     -1.333205     0.768536    -0.692159
H     -1.637265    -0.848434    -0.059221
H     -1.127547     0.442068     1.033136
H      0.780808    -0.183659    -1.203123
H      0.624785    -1.410977     0.038290
H      1.715552     1.088495     0.272433
9
Iteration 0, Energy=-154.0873266379, |grad|=0.024150
C     -0.988589     0.027392     0.033776
C      0.481842    -0.349599    -0.163110
O      1.341558     0.338475     0.708549
H     -1.330332     0.773337    -0.689399
H     -1.636555    -0.847011    -0.064170
H     -1.126831     0.437879     1.034968
H      0.780096    -0.188595    -1.204134
H      0.623746    -1.411566     0.042577
H      1.711608     1.095413     0.269641
9
Iteration 1, Energy=-154.0873408349, |grad|=0.021609
C     -0.988600     0.027434     0.033748
C      0.481812    -0.349714    -0.163136
O      1.341784     0.338833     0.708367
H     -1.330281     0.773382    -0.689335
H     -1.636550    -0.846993    -0.064243
H     -1.126823     0.437817     1.035000
H      0.780090    -0.188662    -1.204134
H      0.623721    -1.411555     0.042620
H      1.711389     1.095183     0.269809
9
Iteration 2, Energy=-154.0873523265, |grad|=0.019375
C     -0.988609     0.027473     0.033723
C      0.481787    -0.349818    -0.163159
O      1.341989     0.339151     0.708201
H     -1.330231     0.773430    -0.689272
H     -1.636544    -0.846974    -0.064316
H     -1.126815     0.437755     1.035032
H      0.780084    -0.188730    -1.204135
H      0.623697    -1.411547     0.042666
H      1.711185     1.094984     0.269957
9
Iteration 3, Energy=-154.0873617363, |grad|=0.017409
C     -0.988617     0.027510     0.033700
C      0.481766    -0.349912    -0.163179
O      1.342175     0.339435     0.708048
H     -1.330179     0.773481    -0.689209
H     -1.636538    -0.846954    -0.064391
H     -1.126807     0.437691     1.035063
H      0.780077    -0.188800    -1.204136
H      0.623674    -1.411540     0.042714
H      1.710992     1.094815     0.270087
9
Iteration 4, Energy=-154.0873695864, |grad|=0.015671
C     -0.988623     0.027546     0.033678
C      0.481749    -0.349999    -0.163198
O      1.342347     0.339693     0.707904
H     -1.330127     0.773534    -0.689145
H     -1.636533    -0.846934    -0.064469
H     -1.126799     0.437626     1.035096
H      0.780070    -0.188874    -1.204137
H      0.623652    -1.411536     0.042765
H      1.710806     1.094669     0.270203
9
Iteration 0, Energy=-153.8469977061, |grad|=1.159951
C     -0.788822     0.286599     0.038828
C      0.368048    -0.260780    -0.080858
O      1.104901     0.342612     0.638958
H     -1.440320     0.721066    -0.759273
H     -1.494201    -1.023593    -0.083942
H     -1.304058     0.396674     1.100502
H      0.616800    -0.244347    -1.117999
H      0.361691    -1.306287    -0.268671
H      1.723768     1.030624     0.169868
9
Iteration -1, Energy=-154.0873695864, |grad|=0.015671
C     -0.988623     0.027546     0.033678
C      0.481749    -0.349999    -0.163198
O      1.342347     0.339693     0.707904
H     -1.330127     0.773534    -0.689145
H     -1.636533    -0.846934    -0.064469
H     -1.126799     0.437626     1.035096
H      0.780070    -0.188874    -1.204137
H      0.623652    -1.411536     0.042765
H      1.710806     1.094669     0.270203
9
Iteration 0, Energy=-154.0873763311, |grad|=0.014112
C     -0.988628     0.027581     0.033658
C      0.481735    -0.350082    -0.163215
O      1.342509     0.339931     0.707766
H     -1.330072     0.773592    -0.689079
H     -1.636527    -0.846911    -0.064551
H     -1.126790     0.437556     1.035130
H      0.780063    -0.188952    -1.204139
H      0.623629    -1.411533     0.042821
H      1.710624     1.094542     0.270307
9
Iteration 1, Energy=-154.0873824060, |grad|=0.012680
C     -0.988632     0.027617     0.033638
C      0.481724    -0.350163    -0.163232
O      1.342670     0.340160     0.707627
H     -1.330011     0.773658    -0.689008
H     -1.636520    -0.846886    -0.064643
H     -1.126780     0.437479     1.035167
H      0.780054    -0.189040    -1.204142
H      0.623605    -1.411531     0.042884
H      1.710434     1.094431     0.270405
9
Iteration 2, Energy=-154.0873883364, |grad|=0.011298
C     -0.988634     0.027657     0.033617
C      0.481714    -0.350251    -0.163249
O      1.342841     0.340397     0.707476
H     -1.329938     0.773740    -0.688922
H     -1.636513    -0.846854    -0.064754
H     -1.126769     0.437385     1.035212
H      0.780043    -0.189147    -1.204147
H      0.623577    -1.411531     0.042963
H      1.710221     1.094330     0.270502
9
Iteration 3, Energy=-154.0873951019, |grad|=0.009845
C     -0.988633     0.027709     0.033591
C      0.481707    -0.350361    -0.163269
O      1.343055     0.340677     0.707281
H     -1.329833     0.773863    -0.688801
H     -1.636502    -0.846807    -0.064916
H     -1.126752     0.437248     1.035276
H      0.780026    -0.189305    -1.204155
H      0.623538    -1.411535     0.043080
H      1.709934     1.094236     0.270609
9
Iteration 4, Energy=-154.0874064104, |grad|=0.008161
C     -0.988619     0.027814     0.033544
C      0.481707    -0.350567    -0.163301
O      1.343453     0.341151     0.706904
H     -1.329593     0.774155    -0.688529
H     -1.636478    -0.846697    -0.065292
H     -1.126713     0.436932     1.035423
H      0.779988    -0.189673    -1.204178
H      0.623455    -1.411552     0.043358
H      1.709341     1.094161     0.270767
9
Iteration 0, Energy=-153.8784203505, |grad|=1.266226
C     -0.867954     0.159434     0.193405
C      0.488098    -0.515816    -0.436338
O      1.282021     0.575402     0.676615
H     -1.453598     0.779791    -0.549510
H     -1.450957    -0.775927     0.133843
H     -1.153887     0.590108     0.853694
H      0.869253    -0.175112    -1.382970
H      0.550405    -1.584518    -0.249988
H      1.921430     1.136528     0.449064
9
Iteration -1, Energy=-154.0874064104, |grad|=0.008161
C     -0.988619     0.027814     0.033544
C      0.481707    -0.350567    -0.163301
O      1.343453     0.341151     0.706904
H     -1.329593     0.774155    -0.688529
H     -1.636478    -0.846697    -0.065292
H     -1.126713     0.436932     1.035423
H      0.779988    -0.189673    -1.204178
H      0.623455    -1.411552     0.043358
H      1.709341     1.094161     0.270767
9
Iteration 0, Energy=-154.0874956800, |grad|=0.035577
C     -0.987697     0.029751     0.032968
C      0.482393    -0.353840    -0.163488
O      1.349485     0.345735     0.700306
H     -1.323549     0.782155    -0.681911
H     -1.635910    -0.843705    -0.075027
H     -1.125732     0.428757     1.039129
H      0.779011    -0.199314    -1.204974
H      0.621556    -1.412361     0.050854
H      1.696987     1.098547     0.270840
9
Iteration 1, Energy=-154.0876306027, |grad|=0.008423
C     -0.987059     0.029181     0.033450
C      0.482616    -0.352832    -0.162981
O      1.347336     0.341183     0.701892
H     -1.323337     0.783053    -0.681864
H     -1.635938    -0.843399    -0.075660
H     -1.125723     0.428258     1.039291
H      0.779017    -0.199977    -1.205247
H      0.621615    -1.412607     0.051486
H      1.698015     1.102864     0.268330
9
Iteration 2, Energy=-154.0877029344, |grad|=0.032109
C     -0.982881     0.027787     0.034878
C      0.480321    -0.355988    -0.161188
O      1.352753     0.344838     0.696206
H     -1.319208     0.791592    -0.677932
H     -1.636160    -0.840187    -0.083972
H     -1.125583     0.421572     1.042310
H      0.779203    -0.207790    -1.207119
H      0.620499    -1.413036     0.057450
H      1.687598     1.106937     0.268063
9
Iteration 3, Energy=-154.0877662607, |grad|=0.027097
C     -0.985435     0.030279     0.033625
C      0.484057    -0.354448    -0.162652
O      1.349527     0.338079     0.698442
H     -1.317589     0.790977    -0.675718
H     -1.636069    -0.839871    -0.085040
H     -1.125449     0.420456     1.042804
H      0.778404    -0.209307    -1.205845
H      0.620576    -1.413746     0.058760
H      1.688521     1.113306     0.264321
9
Iteration 4, Energy=-154.0877836767, |grad|=0.024289
C     -0.985381     0.030250     0.033639
C      0.483957    -0.354562    -0.162623
O      1.349765     0.338476     0.698241
H     -1.317559     0.791064    -0.675692
H     -1.636070    -0.839840    -0.085114
H     -1.125448     0.420398     1.042830
H      0.778419    -0.209366    -1.205883
H      0.620558    -1.413738     0.058796
H      1.688301     1.113042     0.264503
9
Iteration 0, Energy=-153.8506859347, |grad|=1.285725
C     -1.124712     0.003526     0.050643
C      0.337905    -0.224691    -0.227518
O      1.355668     0.335510     0.896615
H     -1.132409     0.622124    -0.483662
H     -1.641374    -1.037404    -0.148102
H     -1.269395     0.505235     0.985738
H      0.668416     0.005479    -1.359837
H      0.486024    -1.665096     0.001701
H      1.787390     1.276966     0.386945
9
Iteration -1, Energy=-154.0877836767, |grad|=0.024289
C     -0.985381     0.030250     0.033639
C      0.483957    -0.354562    -0.162623
O      1.349765     0.338476     0.698241
H     -1.317559     0.791064    -0.675692
H     -1.636070    -0.839840    -0.085114
H     -1.125448     0.420398     1.042830
H      0.778419    -0.209366    -1.205883
H      0.620558    -1.413738     0.058796
H      1.688301     1.113042     0.264503
9
Iteration 0, Energy=-154.0877979470, |grad|=0.021776
C     -0.985329     0.030224     0.033653
C      0.483866    -0.354666    -0.162595
O      1.349983     0.338834     0.698055
H     -1.317526     0.791150    -0.675665
H     -1.636071    -0.839808    -0.085188
H     -1.125447     0.420339     1.042855
H      0.778432    -0.209427    -1.205919
H      0.620541    -1.413731     0.058834
H      1.688093     1.112810     0.264665
9
Iteration 1, Energy=-154.0878097342, |grad|=0.019526
C     -0.985279     0.030199     0.033667
C      0.483783    -0.354761    -0.162567
O      1.350184     0.339158     0.697881
H     -1.317491     0.791237    -0.675634
H     -1.636073    -0.839776    -0.085265
H     -1.125446     0.420278     1.042882
H      0.778445    -0.209492    -1.205952
H      0.620525    -1.413726     0.058876
H      1.687894     1.112607     0.264810
9
Iteration 2, Energy=-154.0878196045, |grad|=0.017504
C     -0.985230     0.030176     0.033681
C      0.483707    -0.354850    -0.162540
O      1.350373     0.339455     0.697717
H     -1.317454     0.791326    -0.675601
H     -1.636074    -0.839742    -0.085345
H     -1.125445     0.420214     1.042909
H      0.778455    -0.209560    -1.205985
H      0.620509    -1.413723     0.058921
H      1.687701     1.112429     0.264940
9
Iteration 3, Energy=-154.0878280571, |grad|=0.015669
C     -0.985181     0.030154     0.033695
C      0.483635    -0.354935    -0.162513
O      1.350552     0.339731     0.697559
H     -1.317412     0.791418    -0.675564
H     -1.636076    -0.839706    -0.085430
H     -1.125444     0.420146     1.042938
H      0.778465    -0.209634    -1.206018
H      0.620494    -1.413722     0.058972
H      1.687509     1.112273     0.265058
9
Iteration 4, Energy=-154.0878355684, |grad|=0.013971
C     -0.985130     0.030132     0.033710
C      0.483566    -0.355019    -0.162485
O      1.350729     0.339996     0.697400
H     -1.317365     0.791519    -0.675521
H     -1.636078    -0.839667    -0.085524
H     -1.125443     0.420070     1.042971
H      0.778475    -0.209718    -1.206051
H      0.620478    -1.413722     0.059030
H      1.687311     1.112133     0.265168
9
Iteration 0, Energy=-153.7915249030, |grad|=1.150157
C     -0.954441     0.234214     0.070980
C      0.364294    -0.415876    -0.355570
O      1.135824     0.483460     0.941705
H     -1.261522     0.720124    -0.771028
H     -1.666592    -0.940260     0.118009
H     -1.014651     0.509494     1.197460
H      0.859640    -0.311399    -1.059251
H      0.699510    -1.652217    -0.002194
H      2.017266     1.249902     0.210468
9
Iteration -1, Energy=-154.0878355684, |grad|=0.013971
C     -0.985130     0.030132     0.033710
C      0.483566    -0.355019    -0.162485
O      1.350729     0.339996     0.697400
H     -1.317365     0.791519    -0.675521
H     -1.636078    -0.839667    -0.085524
H     -1.125443     0.420070     1.042971
H      0.778475    -0.209718    -1.206051
H      0.620478    -1.413722     0.059030
H      1.687311     1.112133     0.265168
9
Iteration 0, Energy=-154.0878426890, |grad|=0.012339
C     -0.985073     0.030110     0.033727
C      0.483495    -0.355108    -0.162453
O      1.350917     0.340266     0.697229
H     -1.317307     0.791638    -0.675468
H     -1.636080    -0.839620    -0.085638
H     -1.125441     0.419978     1.043010
H      0.778483    -0.209819    -1.206087
H      0.620460    -1.413724     0.059102
H      1.687089     1.112005     0.265275
9
Iteration 1, Energy=-154.0878503474, |grad|=0.010655
C     -0.985000     0.030083     0.033749
C      0.483413    -0.355215    -0.162412
O      1.351142     0.340573     0.697019
H     -1.317223     0.791800    -0.675390
H     -1.636084    -0.839555    -0.085795
H     -1.125438     0.419850     1.043064
H      0.778493    -0.209964    -1.206133
H      0.620436    -1.413730     0.059205
H      1.686803     1.111882     0.265391
9
Iteration 2, Energy=-154.0878615189, |grad|=0.008722
C     -0.984865     0.030043     0.033790
C      0.483287    -0.355395    -0.162338
O      1.351518     0.341039     0.696657
H     -1.317047     0.792122    -0.675223
H     -1.636092    -0.839424    -0.086117
H     -1.125432     0.419587     1.043175
H      0.778504    -0.210263    -1.206215
H      0.620394    -1.413749     0.059424
H      1.686275     1.111765     0.265544
9
Iteration 3, Energy=-154.0879133253, |grad|=0.016460
C     -0.983776     0.029872     0.034121
C      0.482682    -0.356622    -0.161763
O      1.354004     0.343256     0.694052
H     -1.315174     0.795195    -0.673403
H     -1.636172    -0.838126    -0.089343
H     -1.125368     0.416931     1.044298
H      0.778494    -0.213349    -1.206836
H      0.620034    -1.414040     0.061741
H      1.681818     1.112608     0.265829
9
Iteration 4, Energy=-154.0879504456, |grad|=0.009325
C     -0.983923     0.030223     0.034034
C      0.483419    -0.356286    -0.161922
O      1.353094     0.340853     0.694660
H     -1.314557     0.795695    -0.672720
H     -1.636193    -0.837840    -0.090129
H     -1.125348     0.416254     1.044598
H      0.778314    -0.214212    -1.206678
H      0.620024    -1.414215     0.062455
H      1.681711     1.115254     0.264398
9
Iteration 0, Energy=-153.6951629969, |grad|=2.273701
C     -0.903825     0.188865     0.071592
C      0.546613    -0.226304    -0.138556
O      1.197150     0.235690     0.606420
H     -1.180278     0.672374    -0.537998
H     -1.489632    -1.057579     0.008131
H     -0.994169     0.385484     0.845603
H      0.946596    -0.189537    -1.352346
H      0.673361    -1.492821     0.071669
H      1.873192     1.026013     0.408896
9
Iteration -1, Energy=-154.0879504456, |grad|=0.009325
C     -0.983923     0.030223     0.034034
C      0.483419    -0.356286    -0.161922
O      1.353094     0.340853     0.694660
H     -1.314557     0.795695    -0.672720
H     -1.636193    -0.837840    -0.090129
H     -1.125348     0.416254     1.044598
H      0.778314    -0.214212    -1.206678
H      0.620024    -1.414215     0.062455
H      1.681711     1.115254     0.264398
9
Iteration 0, Energy=-154.0879742128, |grad|=0.008621
C     -0.983767     0.030373     0.034001
C      0.483387    -0.356803    -0.161926
O      1.354003     0.341866     0.693739
H     -1.313910     0.796519    -0.672037
H     -1.636213    -0.837452    -0.091122
H     -1.125332     0.415429     1.044976
H      0.778257    -0.215177    -1.206743
H      0.619902    -1.414276     0.063166
H      1.680215     1.115246     0.264643
9
Iteration 1, Energy=-154.0880370317, |grad|=0.025180
C     -0.982713     0.030751     0.034299
C      0.484359    -0.357173    -0.161464
O      1.354429     0.338351     0.692303
H     -1.310397     0.801236    -0.668515
H     -1.636351    -0.835255    -0.096563
H     -1.125230     0.410892     1.046909
H      0.777843    -0.220634    -1.207166
H      0.619524    -1.415085     0.067438
H      1.675078     1.122642     0.261456
9
Iteration 2, Energy=-154.0880534202, |grad|=0.022352
C     -0.982695     0.030770     0.034288
C      0.484298    -0.357307    -0.161472
O      1.354665     0.338763     0.692102
H     -1.310347     0.801301    -0.668459
H     -1.636352    -0.835226    -0.096643
H     -1.125229     0.410826     1.046940
H      0.777845    -0.220703    -1.207178
H      0.619505    -1.415071     0.067480
H      1.674852     1.122372     0.261638
9
Iteration 3, Energy=-154.0880666742, |grad|=0.019848
C     -0.982677     0.030787     0.034278
C      0.484245    -0.357430    -0.161478
O      1.354880     0.339133     0.691915
H     -1.310295     0.801368    -0.668402
H     -1.636353    -0.835194    -0.096724
H     -1.125229     0.410759     1.046972
H      0.777846    -0.220775    -1.207188
H      0.619487    -1.415060     0.067525
H      1.674638     1.122137     0.261799
9
Iteration 4, Energy=-154.0880775237, |grad|=0.017632
C     -0.982659     0.030804     0.034270
C      0.484199    -0.357542    -0.161483
O      1.355079     0.339468     0.691740
H     -1.310241     0.801438    -0.668343
H     -1.636355    -0.835162    -0.096809
H     -1.125228     0.410690     1.047005
H      0.777847    -0.220852    -1.207199
H      0.619470    -1.415052     0.067574
H      1.674431     1.121934     0.261941
9
Iteration 0, Energy=-153.9584374587, |grad|=0.683663
C     -0.926503     0.084249     0.101321
C      0.604975    -0.369188    -0.226312
O      1.184509     0.366583     0.708234
H     -1.238791     0.703705    -0.526544
H     -1.651727    -0.910496    -0.211568
H     -0.970297     0.732864     0.905292
H      0.922434     0.009470    -1.347885
H      0.405089    -1.552143     0.068694
H      1.755283     1.042198     0.219725
9
Iteration -1, Energy=-154.0880775237, |grad|=0.017632
C     -0.982659     0.030804     0.034270
C      0.484199    -0.357542    -0.161483
O      1.355079     0.339468     0.691740
H     -1.310241     0.801438    -0.668343
H     -1.636355    -0.835162    -0.096809
H     -1.125228     0.410690     1.047005
H      0.777847    -0.220852    -1.207199
H      0.619470    -1.415052     0.067574
H      1.674431     1.121934     0.261941
9
Iteration 0, Energy=-154.0880865999, |grad|=0.015656
C     -0.982640     0.030820     0.034263
C      0.484157    -0.357649    -0.161487
O      1.355266     0.339774     0.691574
H     -1.310183     0.801512    -0.668281
H     -1.636356    -0.835127    -0.096899
H     -1.125228     0.410616     1.047040
H      0.777846    -0.220933    -1.207210
H      0.619453    -1.415046     0.067628
H      1.674227     1.121758     0.262069
9
Iteration 1, Energy=-154.0880944882, |grad|=0.013864
C     -0.982619     0.030837     0.034257
C      0.484119    -0.357752    -0.161490
O      1.355448     0.340064     0.691409
H     -1.310119     0.801594    -0.668213
H     -1.636358    -0.835088    -0.096998
H     -1.125227     0.410534     1.047077
H      0.777845    -0.221025    -1.207221
H      0.619436    -1.415041     0.067691
H      1.674018     1.121603     0.262186
9
Iteration 2, Energy=-154.0881018344, |grad|=0.012179
C     -0.982595     0.030855     0.034251
C      0.484082    -0.357860    -0.161492
O      1.355638     0.340354     0.691233
H     -1.310043     0.801693    -0.668132
H     -1.636360    -0.835041    -0.097117
H     -1.125226     0.410436     1.047122
H      0.777842    -0.221135    -1.207234
H      0.619417    -1.415039     0.067767
H      1.673786     1.121463     0.262298
9
Iteration 3, Energy=-154.0881096965, |grad|=0.010472
C     -0.982561     0.030879     0.034245
C      0.484044    -0.357991    -0.161492
O      1.355867     0.340685     0.691017
H     -1.309935     0.801832    -0.668019
H     -1.636364    -0.834975    -0.097283
H     -1.125224     0.410298     1.047183
H      0.777836    -0.221292    -1.207251
H      0.619394    -1.415040     0.067879
H      1.673485     1.121330     0.262417
9
Iteration 4, Energy=-154.0881216134, |grad|=0.008567
C     -0.982490     0.030924     0.034240
C      0.483991    -0.358218    -0.161486
O      1.356264     0.341203     0.690626
H     -1.309703     0.802132    -0.667778
H     -1.636371    -0.834832    -0.097639
H     -1.125220     0.410002     1.047314
H      0.777820    -0.221633    -1.207285
H      0.619350    -1.415053     0.068126
H      1.672901     1.121200     0.262579
9
Iteration 0, Energy=-153.7231151893, |grad|=1.939637
C     -0.829738     0.323778    -0.001610
C      0.490924    -0.539124    -0.341233
O      1.167404     0.494914     0.827579
H     -1.247919     0.753428    -0.491138
H     -1.554806    -0.983412    -0.134621
H     -1.233722     0.365369     1.152224
H      0.650214    -0.015298    -1.237987
H      0.520775    -1.406630     0.028420
H      1.685003     1.294418     0.272618
9
Iteration -1, Energy=-154.0881216134, |grad|=0.008567
C     -0.982490     0.030924     0.034240
C      0.483991    -0.358218    -0.161486
O      1.356264     0.341203     0.690626
H     -1.309703     0.802132    -0.667778
H     -1.636371    -0.834832    -0.097639
H     -1.125220     0.410002     1.047314
H      0.777820    -0.221633    -1.207285
H      0.619350    -1.415053     0.068126
H      1.672901     1.121200     0.262579
9
Iteration 0, Energy=-154.0881962402, |grad|=0.026639
C     -0.981291     0.031567     0.034315
C      0.483897    -0.360708    -0.161227
O      1.360539     0.344938     0.685958
H     -1.305705     0.807311    -0.663701
H     -1.636509    -0.832342    -0.103744
H     -1.125139     0.404923     1.049507
H      0.777452    -0.227590    -1.207815
H      0.618749    -1.415547     0.072584
H      1.664550     1.123174     0.262818
9
Iteration 1, Energy=-154.0882757936, |grad|=0.008551
C     -0.981172     0.031526     0.034459
C      0.484493    -0.359920    -0.161078
O      1.359085     0.341323     0.687031
H     -1.305256     0.807897    -0.663298
H     -1.636530    -0.832044    -0.104396
H     -1.125125     0.404368     1.049704
H      0.777337    -0.228316    -1.207832
H      0.618808    -1.415801     0.073232
H      1.664902     1.126692     0.260875
9
Iteration 2, Energy=-154.0883572589, |grad|=0.029901
C     -0.979615     0.032181     0.034670
C      0.484483    -0.362737    -0.160604
O      1.363809     0.345553     0.681429
H     -1.300517     0.814035    -0.658540
H     -1.636705    -0.829051    -0.111576
H     -1.125056     0.398394     1.052234
H      0.776862    -0.235328    -1.208500
H      0.618154    -1.416387     0.078470
H      1.655126     1.129064     0.261114
9
Iteration 3, Energy=-154.0884550870, |grad|=0.008485
C     -0.979555     0.032178     0.034769
C      0.485121    -0.361883    -0.160552
O      1.362258     0.341537     0.682718
H     -1.300045     0.814562    -0.658103
H     -1.636712    -0.828746    -0.112208
H     -1.125044     0.397852     1.052432
H      0.776723    -0.236054    -1.208471
H      0.618237    -1.416651     0.079129
H      1.655560     1.132929     0.258982
9
Iteration 4, Energy=-154.0885361635, |grad|=0.044680
C     -0.977349     0.033498     0.034869
C      0.485031    -0.366582    -0.160311
O      1.369850     0.348028     0.674128
H     -1.291898     0.824377    -0.649886
H     -1.636855    -0.823581    -0.124051
H     -1.124939     0.387940     1.056561
H      0.775777    -0.247740    -1.209416
H      0.617322    -1.417616     0.087851
H      1.639604     1.137400     0.258952
9
Iteration 0, Energy=-153.6457825565, |grad|=2.847840
C     -1.029001    -0.049398     0.155421
C      0.679469    -0.304935    -0.320994
O      1.267235     0.409869     0.633859
H     -1.321842     0.580886    -0.482860
H     -1.453967    -0.750894    -0.024458
H     -1.144624     0.524183     1.194305
H      0.725583    -0.281616    -1.094659
H      0.587706    -1.562759    -0.264239
H      1.630376     0.944077     0.382288
