9
Iteration -1, Energy=-154.0755898230, |grad|=0.101891
C     -0.965758     0.024365     0.078058
C      0.476549    -0.352313    -0.187486
O      1.240127     0.406973     0.730133
H     -1.346439     0.692879    -0.702929
H     -1.532631    -0.889537    -0.026189
H     -1.128733     0.557197     1.039330
H      0.782901    -0.173305    -1.241878
H      0.536037    -1.457373    -0.062041
H      1.794490     1.066840     0.341698
9
Iteration 0, Energy=-154.0810466359, |grad|=0.102476
C     -0.992467     0.041620     0.044729
C      0.479226    -0.334243    -0.187641
O      1.264545     0.381972     0.736415
H     -1.346073     0.696760    -0.699939
H     -1.559540    -0.893641    -0.011230
H     -1.118004     0.527315     1.023222
H      0.775502    -0.170370    -1.220538
H      0.564273    -1.429249    -0.044056
H      1.789080     1.055562     0.327735
9
Iteration 1, Energy=-154.0825578590, |grad|=0.093374
C     -0.979453     0.013332     0.057275
C      0.465432    -0.334690    -0.174195
O      1.277396     0.374920     0.734708
H     -1.359785     0.719362    -0.722753
H     -1.568875    -0.885894    -0.007844
H     -1.116431     0.518087     1.017697
H      0.778658    -0.164059    -1.224276
H      0.574687    -1.415585    -0.035766
H      1.784913     1.050252     0.323852
9
Iteration 2, Energy=-154.0842205591, |grad|=0.040089
C     -0.989607     0.029665     0.043035
C      0.474610    -0.333610    -0.178869
O      1.279289     0.367383     0.737318
H     -1.357088     0.713168    -0.715059
H     -1.576664    -0.889363    -0.006009
H     -1.115626     0.512851     1.017745
H      0.776227    -0.162417    -1.217899
H      0.580498    -1.413124    -0.030485
H      1.784903     1.051172     0.318919
9
Iteration 3, Energy=-154.0848924154, |grad|=0.041626
C     -0.990771     0.024931     0.039392
C      0.471156    -0.331502    -0.176662
O      1.291309     0.365330     0.735239
H     -1.360901     0.718165    -0.718780
H     -1.584663    -0.884915    -0.004301
H     -1.114901     0.505668     1.015379
H      0.777127    -0.158266    -1.215896
H      0.588927    -1.408892    -0.022790
H      1.779260     1.045207     0.317115
9
Iteration 4, Energy=-154.0851324940, |grad|=0.053007
C     -0.993492     0.029290     0.036214
C      0.475237    -0.331362    -0.175933
O      1.289544     0.352228     0.738699
H     -1.362257     0.718962    -0.718545
H     -1.591838    -0.884204    -0.003860
H     -1.114727     0.500115     1.013524
H      0.777073    -0.155532    -1.213259
H      0.594739    -1.405356    -0.017137
H      1.782264     1.051583     0.308995
9
Iteration 0, Energy=-153.9995128661, |grad|=0.828317
C     -0.931243     0.181655     0.048267
C      0.527282    -0.314385    -0.217655
O      1.282562     0.409182     0.790265
H     -1.261429     0.666643    -0.621322
H     -1.501192    -0.855894     0.014014
H     -1.060856     0.582947     1.093270
H      0.852241    -0.086015    -1.233888
H      0.604300    -1.555174     0.002104
H      1.908618     1.077614     0.246591
9
Iteration -1, Energy=-154.0851324940, |grad|=0.053007
C     -0.993492     0.029290     0.036214
C      0.475237    -0.331362    -0.175933
O      1.289544     0.352228     0.738699
H     -1.362257     0.718962    -0.718545
H     -1.591838    -0.884204    -0.003860
H     -1.114727     0.500115     1.013524
H      0.777073    -0.155532    -1.213259
H      0.594739    -1.405356    -0.017137
H      1.782264     1.051583     0.308995
9
Iteration 0, Energy=-154.0852063539, |grad|=0.047713
C     -0.993487     0.029073     0.036118
C      0.475032    -0.331449    -0.175919
O      1.290342     0.352781     0.738364
H     -1.362372     0.719124    -0.718650
H     -1.592072    -0.884024    -0.003866
H     -1.114742     0.499945     1.013524
H      0.777132    -0.155404    -1.213206
H      0.594955    -1.405291    -0.016928
H      1.781753     1.050969     0.309260
9
Iteration 1, Energy=-154.0852697796, |grad|=0.042853
C     -0.993486     0.028864     0.036020
C      0.474843    -0.331525    -0.175898
O      1.291111     0.353274     0.738047
H     -1.362489     0.719287    -0.718755
H     -1.592322    -0.883839    -0.003874
H     -1.114757     0.499763     1.013521
H      0.777192    -0.155272    -1.213148
H      0.595185    -1.405224    -0.016706
H      1.781264     1.050396     0.309491
9
Iteration 2, Energy=-154.0853256617, |grad|=0.038335
C     -0.993489     0.028657     0.035915
C      0.474666    -0.331594    -0.175871
O      1.291873     0.353719     0.737739
H     -1.362613     0.719459    -0.718862
H     -1.592597    -0.883646    -0.003884
H     -1.114774     0.499562     1.013514
H      0.777254    -0.155131    -1.213084
H      0.595437    -1.405150    -0.016461
H      1.780785     1.049849     0.309690
9
Iteration 3, Energy=-154.0853772269, |grad|=0.034017
C     -0.993499     0.028442     0.035796
C      0.474493    -0.331657    -0.175835
O      1.292667     0.354128     0.737427
H     -1.362749     0.719648    -0.718976
H     -1.592917    -0.883431    -0.003897
H     -1.114793     0.499329     1.013503
H      0.777321    -0.154971    -1.213007
H      0.595727    -1.405067    -0.016177
H      1.780293     1.049305     0.309863
9
Iteration 4, Energy=-154.0854291625, |grad|=0.029655
C     -0.993519     0.028197     0.035647
C      0.474311    -0.331720    -0.175783
O      1.293577     0.354521     0.737081
H     -1.362918     0.719879    -0.719111
H     -1.593332    -0.883166    -0.003916
H     -1.114818     0.499027     1.013485
H      0.777404    -0.154771    -1.212906
H      0.596100    -1.404960    -0.015811
H      1.779737     1.048718     0.310011
9
Iteration 0, Energy=-153.9800033075, |grad|=0.998150
C     -1.030092     0.184824     0.057038
C      0.407904    -0.290556    -0.173820
O      1.219245     0.372113     0.673558
H     -1.287112     0.571700    -0.654682
H     -1.605320    -0.866269     0.043888
H     -1.103667     0.480506     0.992460
H      0.846484    -0.251666    -1.295982
H      0.541355    -1.387418    -0.000689
H      1.870657     1.005712     0.324120
9
Iteration -1, Energy=-154.0854291625, |grad|=0.029655
C     -0.993519     0.028197     0.035647
C      0.474311    -0.331720    -0.175783
O      1.293577     0.354521     0.737081
H     -1.362918     0.719879    -0.719111
H     -1.593332    -0.883166    -0.003916
H     -1.114818     0.499027     1.013485
H      0.777404    -0.154771    -1.212906
H      0.596100    -1.404960    -0.015811
H      1.779737     1.048718     0.310011
9
Iteration 0, Energy=-154.0854923807, |grad|=0.024742
C     -0.993565     0.027857     0.035410
C      0.474086    -0.331792    -0.175688
O      1.294869     0.354928     0.736615
H     -1.363179     0.720236    -0.719309
H     -1.594015    -0.882753    -0.003953
H     -1.114859     0.498529     1.013447
H      0.777531    -0.154453    -1.212737
H      0.596709    -1.404787    -0.015210
H      1.778965     1.047960     0.310121
9
Iteration 1, Energy=-154.0856222440, |grad|=0.019684
C     -0.993776     0.027006     0.034655
C      0.473656    -0.331918    -0.175341
O      1.298289     0.355261     0.735516
H     -1.363971     0.721315    -0.719857
H     -1.596294    -0.881486    -0.004103
H     -1.114998     0.496872     1.013292
H      0.777916    -0.153444    -1.212157
H      0.598706    -1.404219    -0.013225
H      1.777014     1.046339     0.309917
9
Iteration 2, Energy=-154.0860653244, |grad|=0.028904
C     -0.996247     0.025855     0.029850
C      0.475659    -0.331616    -0.172537
O      1.309095     0.342127     0.734697
H     -1.368210     0.727078    -0.721704
H     -1.612568    -0.874236    -0.005822
H     -1.116119     0.485133     1.011822
H      0.780077    -0.147197    -1.207756
H      0.612332    -1.400351     0.000521
H      1.772523     1.048933     0.299625
9
Iteration 3, Energy=-154.0860885674, |grad|=0.025447
C     -0.996267     0.025897     0.029820
C      0.475616    -0.331807    -0.172562
O      1.309522     0.342548     0.734469
H     -1.368195     0.727102    -0.721652
H     -1.612698    -0.874170    -0.005905
H     -1.116158     0.485053     1.011852
H      0.780113    -0.147177    -1.207717
H      0.612398    -1.400342     0.000594
H      1.772210     1.048622     0.299798
9
Iteration 4, Energy=-154.0861075985, |grad|=0.022338
C     -0.996286     0.025936     0.029793
C      0.475580    -0.331987    -0.172582
O      1.309926     0.342927     0.734255
H     -1.368178     0.727129    -0.721600
H     -1.612836    -0.874099    -0.005993
H     -1.116198     0.484968     1.011882
H      0.780151    -0.147158    -1.207677
H      0.612470    -1.400338     0.000674
H      1.771913     1.048346     0.299945
9
Iteration 0, Energy=-153.9073589177, |grad|=0.923616
C     -0.954294     0.216612     0.175962
C      0.603469    -0.412980    -0.325768
O      1.134938     0.420495     0.829390
H     -1.306000     0.557094    -0.684198
H     -1.442089    -0.879875     0.028448
H     -1.210198     0.590857     1.002631
H      0.823390    -0.123479    -1.244338
H      0.458809    -1.467360    -0.127413
H      1.867421     1.110831     0.246357
9
Iteration -1, Energy=-154.0861075985, |grad|=0.022338
C     -0.996286     0.025936     0.029793
C      0.475580    -0.331987    -0.172582
O      1.309926     0.342927     0.734255
H     -1.368178     0.727129    -0.721600
H     -1.612836    -0.874099    -0.005993
H     -1.116198     0.484968     1.011882
H      0.780151    -0.147158    -1.207677
H      0.612470    -1.400338     0.000674
H      1.771913     1.048346     0.299945
9
Iteration 0, Energy=-154.0861234921, |grad|=0.019522
C     -0.996306     0.025973     0.029767
C      0.475553    -0.332160    -0.172598
O      1.310315     0.343273     0.734049
H     -1.368160     0.727161    -0.721545
H     -1.612983    -0.874020    -0.006089
H     -1.116242     0.484876     1.011915
H      0.780191    -0.147140    -1.207634
H      0.612550    -1.400338     0.000763
H      1.771625     1.048100     0.300069
9
Iteration 1, Energy=-154.0861372850, |grad|=0.016924
C     -0.996326     0.026010     0.029741
C      0.475534    -0.332335    -0.172610
O      1.310708     0.343598     0.733842
H     -1.368140     0.727201    -0.721485
H     -1.613150    -0.873930    -0.006198
H     -1.116292     0.484772     1.011953
H      0.780235    -0.147123    -1.207586
H      0.612642    -1.400342     0.000866
H      1.771332     1.047875     0.300173
9
Iteration 2, Energy=-154.0861502189, |grad|=0.014422
C     -0.996349     0.026048     0.029714
C      0.475522    -0.332527    -0.172618
O      1.311140     0.343922     0.733617
H     -1.368114     0.727253    -0.721412
H     -1.613358    -0.873814    -0.006335
H     -1.116355     0.484641     1.012000
H      0.780288    -0.147104    -1.207527
H      0.612760    -1.400354     0.001000
H      1.771008     1.047661     0.300259
9
Iteration 3, Energy=-154.0861647116, |grad|=0.011789
C     -0.996380     0.026097     0.029681
C      0.475525    -0.332785    -0.172618
O      1.311720     0.344295     0.733318
H     -1.368072     0.727342    -0.721302
H     -1.613683    -0.873630    -0.006553
H     -1.116452     0.484435     1.012074
H      0.780370    -0.147082    -1.207436
H      0.612947    -1.400383     0.001215
H      1.770568     1.047434     0.300318
9
Iteration 4, Energy=-154.0861926465, |grad|=0.009503
C     -0.996459     0.026199     0.029607
C      0.475614    -0.333438    -0.172565
O      1.313199     0.344959     0.732575
H     -1.367932     0.727659    -0.720961
H     -1.614722    -0.873022    -0.007262
H     -1.116767     0.483770     1.012315
H      0.780623    -0.147036    -1.207152
H      0.613563    -1.400513     0.001929
H      1.769422     1.047148     0.300212
9
Iteration 0, Energy=-153.9880131228, |grad|=0.674585
C     -0.889745     0.130061     0.096745
C      0.424649    -0.400296    -0.281760
O      1.263509     0.475369     0.809774
H     -1.309222     0.615288    -0.705451
H     -1.582389    -0.969901    -0.064555
H     -1.228987     0.474322     0.994599
H      0.696592    -0.181529    -1.172971
H      0.582010    -1.461078     0.024170
H      1.854554     1.110221     0.258238
9
Iteration -1, Energy=-154.0861926465, |grad|=0.009503
C     -0.996459     0.026199     0.029607
C      0.475614    -0.333438    -0.172565
O      1.313199     0.344959     0.732575
H     -1.367932     0.727659    -0.720961
H     -1.614722    -0.873022    -0.007262
H     -1.116767     0.483770     1.012315
H      0.780623    -0.147036    -1.207152
H      0.613563    -1.400513     0.001929
H      1.769422     1.047148     0.300212
9
Iteration 0, Energy=-154.0863690931, |grad|=0.020969
C     -0.996692     0.025883     0.029699
C      0.478456    -0.336518    -0.170562
O      1.320479     0.339180     0.729518
H     -1.366072     0.732208    -0.717442
H     -1.626330    -0.865708    -0.015703
H     -1.120366     0.476075     1.015197
H      0.783285    -0.147397    -1.204195
H      0.620847    -1.403004     0.010614
H      1.762935     1.055006     0.291570
9
Iteration 1, Energy=-154.0863814176, |grad|=0.018421
C     -0.996667     0.025861     0.029703
C      0.478386    -0.336621    -0.170541
O      1.320755     0.339516     0.729339
H     -1.366016     0.732279    -0.717405
H     -1.626365    -0.865670    -0.015783
H     -1.120387     0.476020     1.015233
H      0.783297    -0.147453    -1.204196
H      0.620854    -1.402999     0.010637
H      1.762685     1.054794     0.291709
9
Iteration 2, Energy=-154.0863913345, |grad|=0.016177
C     -0.996642     0.025840     0.029708
C      0.478323    -0.336716    -0.170518
O      1.321009     0.339817     0.729174
H     -1.365958     0.732352    -0.717365
H     -1.626401    -0.865631    -0.015866
H     -1.120409     0.475962     1.015270
H      0.783307    -0.147514    -1.204196
H      0.620863    -1.402996     0.010663
H      1.762450     1.054612     0.291827
9
Iteration 3, Energy=-154.0863994860, |grad|=0.014190
C     -0.996618     0.025820     0.029715
C      0.478267    -0.336805    -0.170494
O      1.321248     0.340090     0.729018
H     -1.365894     0.732429    -0.717322
H     -1.626440    -0.865590    -0.015955
H     -1.120433     0.475899     1.015308
H      0.783317    -0.147580    -1.204195
H      0.620874    -1.402995     0.010693
H      1.762222     1.054457     0.291927
9
Iteration 4, Energy=-154.0864064559, |grad|=0.012402
C     -0.996592     0.025799     0.029724
C      0.478215    -0.336892    -0.170466
O      1.321479     0.340346     0.728865
H     -1.365823     0.732514    -0.717273
H     -1.626483    -0.865545    -0.016053
H     -1.120458     0.475829     1.015351
H      0.783326    -0.147655    -1.204192
H      0.620887    -1.402996     0.010729
H      1.761992     1.054324     0.292013
9
Iteration 0, Energy=-153.9724042181, |grad|=0.815645
C     -0.979757     0.055937     0.144948
C      0.499275    -0.330227    -0.288156
O      1.148213     0.349056     0.718130
H     -1.248143     0.604260    -0.585316
H     -1.473309    -0.887747     0.034076
H     -1.218984     0.538480     1.013141
H      0.681297    -0.231531    -1.198840
H      0.497856    -1.552779    -0.123525
H      1.905987     1.101367     0.417798
9
Iteration -1, Energy=-154.0864064559, |grad|=0.012402
C     -0.996592     0.025799     0.029724
C      0.478215    -0.336892    -0.170466
O      1.321479     0.340346     0.728865
H     -1.365823     0.732514    -0.717273
H     -1.626483    -0.865545    -0.016053
H     -1.120458     0.475829     1.015351
H      0.783326    -0.147655    -1.204192
H      0.620887    -1.402996     0.010729
H      1.761992     1.054324     0.292013
9
Iteration 0, Energy=-154.0864128844, |grad|=0.010729
C     -0.996563     0.025777     0.029736
C      0.478164    -0.336983    -0.170433
O      1.321723     0.340602     0.728703
H     -1.365736     0.732617    -0.717213
H     -1.626535    -0.865491    -0.016173
H     -1.120489     0.475743     1.015402
H      0.783335    -0.147747    -1.204187
H      0.620905    -1.403001     0.010776
H      1.761739     1.054207     0.292086
9
Iteration 1, Energy=-154.0864198603, |grad|=0.009035
C     -0.996523     0.025749     0.029755
C      0.478107    -0.337097    -0.170383
O      1.322024     0.340898     0.728501
H     -1.365605     0.732766    -0.717123
H     -1.626613    -0.865412    -0.016350
H     -1.120535     0.475616     1.015476
H      0.783345    -0.147886    -1.204177
H      0.620932    -1.403012     0.010849
H      1.761408     1.054102     0.292149
9
Iteration 2, Energy=-154.0864317446, |grad|=0.007279
C     -0.996431     0.025690     0.029808
C      0.478017    -0.337332    -0.170257
O      1.322631     0.341415     0.728088
H     -1.365264     0.733146    -0.716885
H     -1.626811    -0.865211    -0.016805
H     -1.120650     0.475285     1.015664
H      0.783363    -0.148248    -1.204144
H      0.621009    -1.403052     0.011050
H      1.760677     1.054033     0.292178
9
Iteration 3, Energy=-154.0867373606, |grad|=0.056741
C     -0.991133     0.023552     0.034178
C      0.478725    -0.346986    -0.161473
O      1.345042     0.347437     0.711883
H     -1.339532     0.760333    -0.698627
H     -1.641200    -0.851063    -0.050268
H     -1.128879     0.450507     1.029213
H      0.783444    -0.175708    -1.200732
H      0.627278    -1.407672     0.027716
H      1.722797     1.075323     0.276805
9
Iteration 4, Energy=-154.0870662335, |grad|=0.009777
C     -0.991932     0.024898     0.033969
C      0.480784    -0.345973    -0.162199
O      1.340858     0.340734     0.714567
H     -1.338834     0.760296    -0.697748
H     -1.640826    -0.851020    -0.050761
H     -1.128798     0.449867     1.029375
H      0.782929    -0.176238    -1.200431
H      0.627283    -1.408301     0.028804
H      1.725080     1.081461     0.273121
9
Iteration 0, Energy=-154.0034560293, |grad|=0.535306
C     -0.969318     0.121054     0.143374
C      0.479689    -0.392320    -0.287039
O      1.262378     0.468018     0.726303
H     -1.252896     0.573071    -0.693478
H     -1.514930    -1.001597     0.057198
H     -1.213804     0.468118     1.109832
H      0.742775    -0.103255    -1.237010
H      0.441471    -1.567618    -0.034467
H      1.740233     1.177315     0.327250
9
Iteration -1, Energy=-154.0870662335, |grad|=0.009777
C     -0.991932     0.024898     0.033969
C      0.480784    -0.345973    -0.162199
O      1.340858     0.340734     0.714567
H     -1.338834     0.760296    -0.697748
H     -1.640826    -0.851020    -0.050761
H     -1.128798     0.449867     1.029375
H      0.782929    -0.176238    -1.200431
H      0.627283    -1.408301     0.028804
H      1.725080     1.081461     0.273121
9
Iteration 0, Energy=-154.0871209562, |grad|=0.013986
C     -0.992615     0.027621     0.033157
C      0.482232    -0.348032    -0.164038
O      1.341037     0.342301     0.712135
H     -1.336705     0.761958    -0.695274
H     -1.639058    -0.850293    -0.053147
H     -1.128526     0.447343     1.030625
H      0.781908    -0.177948    -1.200939
H      0.626445    -1.409920     0.032362
H      1.721825     1.082696     0.273817
9
Iteration 1, Energy=-154.0871438983, |grad|=0.018245
C     -0.990224     0.025368     0.034122
C      0.480749    -0.347330    -0.162664
O      1.339664     0.339351     0.712509
H     -1.336356     0.764882    -0.695567
H     -1.638378    -0.849426    -0.054738
H     -1.128333     0.446125     1.031403
H      0.781924    -0.179283    -1.202521
H      0.626095    -1.410542     0.034121
H      1.721402     1.086580     0.272032
9
Iteration 2, Energy=-154.0871898616, |grad|=0.009085
C     -0.990726     0.026580     0.033658
C      0.481136    -0.348497    -0.163385
O      1.341201     0.341863     0.711188
H     -1.335633     0.765071    -0.694600
H     -1.638212    -0.849446    -0.055474
H     -1.128186     0.445383     1.031672
H      0.781613    -0.179994    -1.202318
H      0.625786    -1.410425     0.034758
H      1.719563     1.085190     0.273197
9
Iteration 3, Energy=-154.0872199362, |grad|=0.021071
C     -0.990460     0.027424     0.033443
C      0.482257    -0.348402    -0.163679
O      1.340042     0.338890     0.710950
H     -1.333521     0.767762    -0.692447
H     -1.637376    -0.848633    -0.058530
H     -1.127636     0.442625     1.032856
H      0.780788    -0.183080    -1.202817
H      0.625033    -1.411096     0.037851
H      1.717416     1.090236     0.271070
9
Iteration 4, Energy=-154.0872748919, |grad|=0.008505
C     -0.990032     0.027302     0.033471
C      0.481510    -0.349383    -0.163571
O      1.341953     0.341796     0.709424
H     -1.333198     0.768547    -0.692153
H     -1.637263    -0.848431    -0.059233
H     -1.127545     0.442058     1.033141
H      0.780807    -0.183669    -1.203127
H      0.624781    -1.410977     0.038299
H      1.715528     1.088482     0.272446
9
Iteration 0, Energy=-154.0119771377, |grad|=0.568494
C     -0.938022     0.156992     0.075148
C      0.537135    -0.356862    -0.192858
O      1.222742     0.356550     0.768927
H     -1.301131     0.704702    -0.737537
H     -1.614049    -0.930791    -0.087354
H     -1.117984     0.501766     1.075879
H      0.725323    -0.240367    -1.142409
H      0.425032    -1.483614    -0.072491
H      1.826011     1.173227     0.407779
9
Iteration -1, Energy=-154.0872748919, |grad|=0.008505
C     -0.990032     0.027302     0.033471
C      0.481510    -0.349383    -0.163571
O      1.341953     0.341796     0.709424
H     -1.333198     0.768547    -0.692153
H     -1.637263    -0.848431    -0.059233
H     -1.127545     0.442058     1.033141
H      0.780807    -0.183669    -1.203127
H      0.624781    -1.410977     0.038299
H      1.715528     1.088482     0.272446
9
Iteration 0, Energy=-154.0873211216, |grad|=0.023749
C     -0.988704     0.027391     0.033755
C      0.481861    -0.349532    -0.163145
O      1.341477     0.338525     0.708691
H     -1.330534     0.772987    -0.689593
H     -1.636607    -0.847113    -0.063815
H     -1.126882     0.438178     1.034836
H      0.780141    -0.188247    -1.204053
H      0.623826    -1.411534     0.042278
H      1.711964     1.095069     0.269743
9
Iteration 1, Energy=-154.0873349016, |grad|=0.021248
C     -0.988712     0.027430     0.033729
C      0.481828    -0.349645    -0.163168
O      1.341701     0.338878     0.708511
H     -1.330484     0.773036    -0.689530
H     -1.636601    -0.847094    -0.063888
H     -1.126874     0.438116     1.034867
H      0.780136    -0.188314    -1.204055
H      0.623801    -1.411524     0.042322
H      1.711747     1.094843     0.269909
9
Iteration 2, Energy=-154.0873460594, |grad|=0.019051
C     -0.988718     0.027467     0.033706
C      0.481801    -0.349748    -0.163189
O      1.341903     0.339191     0.708347
H     -1.330434     0.773086    -0.689468
H     -1.636595    -0.847075    -0.063962
H     -1.126866     0.438053     1.034899
H      0.780130    -0.188382    -1.204057
H      0.623777    -1.411515     0.042368
H      1.711544     1.094649     0.270054
9
Iteration 3, Energy=-154.0873552057, |grad|=0.017119
C     -0.988723     0.027501     0.033684
C      0.481778    -0.349841    -0.163208
O      1.342088     0.339471     0.708195
H     -1.330383     0.773138    -0.689407
H     -1.636589    -0.847056    -0.064038
H     -1.126858     0.437990     1.034931
H      0.780123    -0.188453    -1.204060
H      0.623754    -1.411509     0.042417
H      1.711352     1.094483     0.270183
9
Iteration 4, Energy=-154.0873628542, |grad|=0.015409
C     -0.988726     0.027534     0.033664
C      0.481759    -0.349927    -0.163225
O      1.342258     0.339726     0.708052
H     -1.330331     0.773194    -0.689345
H     -1.636583    -0.847035    -0.064116
H     -1.126849     0.437924     1.034963
H      0.780116    -0.188526    -1.204063
H      0.623731    -1.411504     0.042469
H      1.711168     1.094340     0.270297
9
Iteration 0, Energy=-153.9954386088, |grad|=0.544551
C     -0.883684     0.212273     0.063863
C      0.437849    -0.325558    -0.169355
O      1.146748     0.370315     0.698427
H     -1.377859     0.679579    -0.699257
H     -1.510517    -0.971848    -0.062909
H     -1.219204     0.476981     1.058308
H      0.695298    -0.213355    -1.165701
H      0.439809    -1.386984    -0.169714
H      1.773736     1.067742     0.249393
9
Iteration -1, Energy=-154.0873628542, |grad|=0.015409
C     -0.988726     0.027534     0.033664
C      0.481759    -0.349927    -0.163225
O      1.342258     0.339726     0.708052
H     -1.330331     0.773194    -0.689345
H     -1.636583    -0.847035    -0.064116
H     -1.126849     0.437924     1.034963
H      0.780116    -0.188526    -1.204063
H      0.623731    -1.411504     0.042469
H      1.711168     1.094340     0.270297
9
Iteration 0, Energy=-154.0873694546, |grad|=0.013874
C     -0.988728     0.027567     0.033645
C      0.481743    -0.350010    -0.163241
O      1.342419     0.339962     0.707915
H     -1.330277     0.773254    -0.689280
H     -1.636576    -0.847012    -0.064199
H     -1.126840     0.437854     1.034997
H      0.780109    -0.188605    -1.204067
H      0.623708    -1.411501     0.042525
H      1.710985     1.094216     0.270400
9
Iteration 1, Energy=-154.0873754470, |grad|=0.012458
C     -0.988729     0.027601     0.033627
C      0.481729    -0.350092    -0.163256
O      1.342580     0.340190     0.707775
H     -1.330215     0.773324    -0.689208
H     -1.636569    -0.846986    -0.064292
H     -1.126830     0.437775     1.035035
H      0.780100    -0.188695    -1.204072
H      0.623684    -1.411500     0.042590
H      1.710794     1.094108     0.270497
9
Iteration 2, Energy=-154.0873813868, |grad|=0.011081
C     -0.988728     0.027639     0.033606
C      0.481717    -0.350181    -0.163272
O      1.342755     0.340429     0.707621
H     -1.330141     0.773411    -0.689121
H     -1.636561    -0.846953    -0.064408
H     -1.126817     0.437677     1.035082
H      0.780089    -0.188806    -1.204078
H      0.623655    -1.411500     0.042673
H      1.710575     1.094009     0.270594
9
Iteration 3, Energy=-154.0873883941, |grad|=0.009609
C     -0.988723     0.027692     0.033581
C      0.481707    -0.350297    -0.163291
O      1.342980     0.340722     0.707415
H     -1.330028     0.773547    -0.688993
H     -1.636548    -0.846903    -0.064583
H     -1.126799     0.437530     1.035151
H      0.780071    -0.188976    -1.204090
H      0.623613    -1.411504     0.042800
H      1.710270     1.093916     0.270705
9
Iteration 4, Energy=-154.0874013258, |grad|=0.007955
C     -0.988696     0.027809     0.033530
C      0.481703    -0.350540    -0.163323
O      1.343443     0.341262     0.706971
H     -1.329739     0.773910    -0.688669
H     -1.636517    -0.846768    -0.065040
H     -1.126750     0.437145     1.035329
H      0.780025    -0.189423    -1.204123
H      0.623511    -1.411526     0.043141
H      1.709562     1.093855     0.270879
9
Iteration 0, Energy=-153.9879980142, |grad|=0.729443
C     -0.923251     0.148690     0.141152
C      0.497874    -0.453076    -0.347094
O      1.235307     0.486710     0.717256
H     -1.384498     0.708942    -0.594375
H     -1.488895    -0.848015     0.045984
H     -1.144118     0.573698     0.934904
H      0.821524    -0.178737    -1.298187
H      0.534166    -1.526099    -0.160373
H      1.872567     1.120694     0.388991
9
Iteration -1, Energy=-154.0874013258, |grad|=0.007955
C     -0.988696     0.027809     0.033530
C      0.481703    -0.350540    -0.163323
O      1.343443     0.341262     0.706971
H     -1.329739     0.773910    -0.688669
H     -1.636517    -0.846768    -0.065040
H     -1.126750     0.437145     1.035329
H      0.780025    -0.189423    -1.204123
H      0.623511    -1.411526     0.043141
H      1.709562     1.093855     0.270879
9
Iteration 0, Energy=-154.0876594492, |grad|=0.052632
C     -0.985777     0.031968     0.032577
C      0.483563    -0.357487    -0.163296
O      1.355851     0.348027     0.692475
H     -1.314814     0.794329    -0.672556
H     -1.635016    -0.839267    -0.089351
H     -1.124264     0.416744     1.044531
H      0.777560    -0.213536    -1.206426
H      0.618860    -1.413739     0.062094
H      1.680579     1.108687     0.268649
9
Iteration 1, Energy=-154.0879433377, |grad|=0.009086
C     -0.984703     0.030893     0.033424
C      0.483673    -0.356002    -0.162457
O      1.352834     0.341376     0.694835
H     -1.314735     0.795469    -0.672752
H     -1.635101    -0.838829    -0.089974
H     -1.124328     0.416266     1.044591
H      0.777663    -0.214187    -1.206841
H      0.619033    -1.414009     0.062742
H      1.682207     1.114747     0.265128
9
Iteration 2, Energy=-154.0879955188, |grad|=0.023436
C     -0.980464     0.028571     0.035326
C      0.481110    -0.358033    -0.160398
O      1.356110     0.343373     0.690981
H     -1.312571     0.801283    -0.670853
H     -1.635674    -0.836109    -0.095076
H     -1.124804     0.412211     1.046109
H      0.778308    -0.218868    -1.208288
H      0.618795    -1.414011     0.066118
H      1.675732     1.117309     0.264777
9
Iteration 3, Energy=-154.0880739825, |grad|=0.011330
C     -0.982642     0.030825     0.034058
C      0.483816    -0.357525    -0.161809
O      1.354959     0.340508     0.691818
H     -1.311224     0.800626    -0.668966
H     -1.635657    -0.835890    -0.095911
H     -1.124754     0.411363     1.046626
H      0.777698    -0.220010    -1.207222
H      0.618843    -1.414498     0.067052
H      1.675506     1.120327     0.263051
9
Iteration 4, Energy=-154.0880834730, |grad|=0.009457
C     -0.982622     0.030854     0.034051
C      0.483779    -0.357663    -0.161789
O      1.355264     0.340917     0.691533
H     -1.311067     0.800822    -0.668804
H     -1.635669    -0.835788    -0.096146
H     -1.124756     0.411168     1.046714
H      0.777699    -0.220234    -1.207261
H      0.618823    -1.414533     0.067213
H      1.675091     1.120182     0.263186
9
Iteration 0, Energy=-153.9685872860, |grad|=0.954059
C     -1.051630     0.070736     0.069771
C      0.422778    -0.307513    -0.242685
O      1.272131     0.366764     0.827256
H     -1.223903     0.630108    -0.561451
H     -1.584103    -0.978753    -0.094989
H     -1.201872     0.531261     1.000926
H      0.721105    -0.088442    -1.286620
H      0.501975    -1.566388    -0.034528
H      1.805547     1.190913     0.357931
9
Iteration -1, Energy=-154.0880834730, |grad|=0.009457
C     -0.982622     0.030854     0.034051
C      0.483779    -0.357663    -0.161789
O      1.355264     0.340917     0.691533
H     -1.311067     0.800822    -0.668804
H     -1.635669    -0.835788    -0.096146
H     -1.124756     0.411168     1.046714
H      0.777699    -0.220234    -1.207261
H      0.618823    -1.414533     0.067213
H      1.675091     1.120182     0.263186
9
Iteration 0, Energy=-154.0881066529, |grad|=0.008550
C     -0.982523     0.030961     0.034050
C      0.483724    -0.358074    -0.161705
O      1.356174     0.341925     0.690648
H     -1.310441     0.801611    -0.668166
H     -1.635722    -0.835382    -0.097084
H     -1.124766     0.410386     1.047059
H      0.777691    -0.221141    -1.207400
H      0.618761    -1.414682     0.067878
H      1.673644     1.120120     0.263417
9
Iteration 1, Energy=-154.0881833323, |grad|=0.025900
C     -0.981527     0.031480     0.034462
C      0.484849    -0.358669    -0.161119
O      1.357126     0.338394     0.688923
H     -1.306345     0.806939    -0.664117
H     -1.636156    -0.832770    -0.103265
H     -1.124860     0.405240     1.049256
H      0.777371    -0.227312    -1.207955
H      0.618603    -1.415741     0.072629
H      1.667482     1.128164     0.259884
9
Iteration 2, Energy=-154.0882004724, |grad|=0.023016
C     -0.981502     0.031491     0.034450
C      0.484787    -0.358806    -0.161128
O      1.357358     0.338816     0.688714
H     -1.306296     0.807005    -0.664063
H     -1.636158    -0.832737    -0.103344
H     -1.124863     0.405177     1.049289
H      0.777373    -0.227380    -1.207961
H      0.618586    -1.415724     0.072669
H      1.667258     1.127882     0.260070
9
Iteration 3, Energy=-154.0882143211, |grad|=0.020462
C     -0.981478     0.031503     0.034439
C      0.484732    -0.358930    -0.161135
O      1.357570     0.339194     0.688522
H     -1.306244     0.807072    -0.664007
H     -1.636161    -0.832703    -0.103424
H     -1.124865     0.405113     1.049323
H      0.777374    -0.227450    -1.207966
H      0.618570    -1.415711     0.072711
H      1.667046     1.127638     0.260234
9
Iteration 4, Energy=-154.0882256270, |grad|=0.018201
C     -0.981453     0.031513     0.034430
C      0.484685    -0.359044    -0.161141
O      1.357764     0.339535     0.688342
H     -1.306191     0.807142    -0.663950
H     -1.636164    -0.832668    -0.103506
H     -1.124868     0.405046     1.049357
H      0.777373    -0.227525    -1.207972
H      0.618554    -1.415700     0.072758
H      1.666842     1.127426     0.260379
9
Iteration 0, Energy=-153.9367013042, |grad|=0.875945
C     -0.966494     0.186080     0.079939
C      0.435972    -0.403106    -0.306710
O      1.162209     0.440739     0.849800
H     -1.288460     0.679108    -0.705134
H     -1.596712    -0.930181     0.038067
H     -1.074500     0.533391     1.106787
H      0.816717    -0.246881    -1.136328
H      0.608718    -1.559949    -0.036476
H      1.920485     1.177381     0.269693
9
Iteration -1, Energy=-154.0882256270, |grad|=0.018201
C     -0.981453     0.031513     0.034430
C      0.484685    -0.359044    -0.161141
O      1.357764     0.339535     0.688342
H     -1.306191     0.807142    -0.663950
H     -1.636164    -0.832668    -0.103506
H     -1.124868     0.405046     1.049357
H      0.777373    -0.227525    -1.207972
H      0.618554    -1.415700     0.072758
H      1.666842     1.127426     0.260379
9
Iteration 0, Energy=-154.0882350319, |grad|=0.016192
C     -0.981428     0.031524     0.034422
C      0.484642    -0.359151    -0.161146
O      1.357946     0.339846     0.688171
H     -1.306135     0.807215    -0.663890
H     -1.636168    -0.832631    -0.103593
H     -1.124870     0.404975     1.049392
H      0.777372    -0.227604    -1.207977
H      0.618540    -1.415691     0.072809
H      1.666643     1.127242     0.260508
9
Iteration 1, Energy=-154.0882431151, |grad|=0.014380
C     -0.981401     0.031534     0.034415
C      0.484604    -0.359254    -0.161149
O      1.358120     0.340136     0.688004
H     -1.306074     0.807295    -0.663825
H     -1.636171    -0.832591    -0.103688
H     -1.124872     0.404898     1.049429
H      0.777371    -0.227691    -1.207982
H      0.618526    -1.415684     0.072867
H      1.666440     1.127081     0.260626
9
Iteration 2, Energy=-154.0882504739, |grad|=0.012698
C     -0.981371     0.031545     0.034409
C      0.484568    -0.359359    -0.161152
O      1.358298     0.340422     0.687830
H     -1.306002     0.807388    -0.663750
H     -1.636175    -0.832544    -0.103797
H     -1.124875     0.404809     1.049472
H      0.777367    -0.227793    -1.207988
H      0.618511    -1.415679     0.072936
H      1.666221     1.126936     0.260737
9
Iteration 3, Energy=-154.0882579549, |grad|=0.011038
C     -0.981333     0.031559     0.034403
C      0.484531    -0.359479    -0.161153
O      1.358501     0.340730     0.687628
H     -1.305907     0.807510    -0.663652
H     -1.636181    -0.832481    -0.103941
H     -1.124878     0.404691     1.049527
H      0.777362    -0.227928    -1.207995
H      0.618494    -1.415676     0.073030
H      1.665954     1.126799     0.260850
9
Iteration 4, Energy=-154.0882677411, |grad|=0.009216
C     -0.981267     0.031582     0.034397
C      0.484486    -0.359658    -0.161151
O      1.358800     0.341152     0.687317
H     -1.305738     0.807728    -0.663477
H     -1.636191    -0.832370    -0.104197
H     -1.124883     0.404480     1.049624
H      0.777350    -0.228173    -1.208008
H      0.618467    -1.415678     0.073203
H      1.665518     1.126661     0.260990
9
Iteration 0, Energy=-153.9487538372, |grad|=1.065853
C     -0.941186     0.163406     0.080245
C      0.527132    -0.308320    -0.198203
O      1.192872     0.316854     0.682158
H     -1.247838     0.655233    -0.588620
H     -1.508232    -0.988841    -0.016872
H     -1.064260     0.471386     0.930858
H      0.860195    -0.185950    -1.282875
H      0.595644    -1.480251     0.000456
H      1.848448     1.065437     0.368906
9
Iteration -1, Energy=-154.0882677411, |grad|=0.009216
C     -0.981267     0.031582     0.034397
C      0.484486    -0.359658    -0.161151
O      1.358800     0.341152     0.687317
H     -1.305738     0.807728    -0.663477
H     -1.636191    -0.832370    -0.104197
H     -1.124883     0.404480     1.049624
H      0.777350    -0.228173    -1.208008
H      0.618467    -1.415678     0.073203
H      1.665518     1.126661     0.260990
9
Iteration 0, Energy=-154.0882973149, |grad|=0.009634
C     -0.980945     0.031689     0.034396
C      0.484397    -0.360331    -0.161111
O      1.359912     0.342417     0.686074
H     -1.304856     0.808852    -0.662581
H     -1.636245    -0.831792    -0.105518
H     -1.124903     0.403387     1.050107
H      0.777272    -0.229454    -1.208069
H      0.618358    -1.415739     0.074136
H      1.663552     1.126696     0.261263
9
Iteration 1, Energy=-154.0883236570, |grad|=0.022788
C     -0.980332     0.031884     0.034633
C      0.485195    -0.360194    -0.160803
O      1.359509     0.338926     0.685719
H     -1.302700     0.811522    -0.660478
H     -1.636376    -0.830399    -0.108656
H     -1.124912     0.400749     1.051149
H      0.776976    -0.232636    -1.208228
H      0.618302    -1.416261     0.076643
H      1.660881     1.132133     0.258719
9
Iteration 2, Energy=-154.0883374645, |grad|=0.020223
C     -0.980313     0.031899     0.034625
C      0.485140    -0.360319    -0.160808
O      1.359721     0.339310     0.685529
H     -1.302647     0.811590    -0.660421
H     -1.636378    -0.830365    -0.108738
H     -1.124913     0.400682     1.051181
H      0.776977    -0.232708    -1.208239
H      0.618286    -1.416250     0.076687
H      1.660669     1.131886     0.258883
9
Iteration 3, Energy=-154.0883487391, |grad|=0.017952
C     -0.980292     0.031913     0.034617
C      0.485092    -0.360433    -0.160812
O      1.359916     0.339657     0.685351
H     -1.302591     0.811661    -0.660363
H     -1.636381    -0.830330    -0.108823
H     -1.124914     0.400612     1.051214
H      0.776977    -0.232784    -1.208250
H      0.618271    -1.416242     0.076735
H      1.660464     1.131672     0.259028
9
Iteration 4, Energy=-154.0883581359, |grad|=0.015931
C     -0.980272     0.031926     0.034611
C      0.485049    -0.360541    -0.160815
O      1.360100     0.339974     0.685182
H     -1.302532     0.811736    -0.660301
H     -1.636383    -0.830293    -0.108913
H     -1.124915     0.400539     1.051248
H      0.776976    -0.232866    -1.208262
H      0.618256    -1.416236     0.076789
H      1.660263     1.131486     0.259157
9
Iteration 0, Energy=-154.0066200390, |grad|=0.622634
C     -0.952525     0.111098     0.095110
C      0.556313    -0.379762    -0.242082
O      1.186551     0.382301     0.733065
H     -1.277095     0.670898    -0.582892
H     -1.589280    -0.915299    -0.126722
H     -1.052324     0.645076     0.960703
H      0.848115    -0.086446    -1.280645
H      0.461508    -1.509912    -0.001032
H      1.789494     1.073529     0.274321
9
Iteration -1, Energy=-154.0883581359, |grad|=0.015931
C     -0.980272     0.031926     0.034611
C      0.485049    -0.360541    -0.160815
O      1.360100     0.339974     0.685182
H     -1.302532     0.811736    -0.660301
H     -1.636383    -0.830293    -0.108913
H     -1.124915     0.400539     1.051248
H      0.776976    -0.232866    -1.208262
H      0.618256    -1.416236     0.076789
H      1.660263     1.131486     0.259157
9
Iteration 0, Energy=-154.0883662545, |grad|=0.014104
C     -0.980249     0.031940     0.034606
C      0.485010    -0.360646    -0.160816
O      1.360278     0.340273     0.685014
H     -1.302466     0.811819    -0.660233
H     -1.636386    -0.830251    -0.109011
H     -1.124916     0.400458     1.051285
H      0.776974    -0.232957    -1.208273
H      0.618242    -1.416232     0.076850
H      1.660056     1.131322     0.259275
9
Iteration 1, Energy=-154.0883737412, |grad|=0.012396
C     -0.980223     0.031955     0.034602
C      0.484973    -0.360754    -0.160816
O      1.360462     0.340571     0.684838
H     -1.302388     0.811917    -0.660154
H     -1.636390    -0.830202    -0.109128
H     -1.124917     0.400362     1.051328
H      0.776970    -0.233065    -1.208286
H      0.618227    -1.416231     0.076924
H      1.659829     1.131173     0.259388
9
Iteration 2, Energy=-154.0883816026, |grad|=0.010683
C     -0.980188     0.031974     0.034598
C      0.484934    -0.360882    -0.160814
O      1.360680     0.340904     0.684625
H     -1.302281     0.812051    -0.660044
H     -1.636395    -0.830134    -0.109288
H     -1.124918     0.400229     1.051387
H      0.776964    -0.233216    -1.208302
H      0.618208    -1.416233     0.077030
H      1.659539     1.131031     0.259506
9
Iteration 3, Energy=-154.0883929386, |grad|=0.008777
C     -0.980119     0.032010     0.034596
C      0.484882    -0.361094    -0.160806
O      1.361039     0.341403     0.684260
H     -1.302063     0.812324    -0.659825
H     -1.636406    -0.829996    -0.109611
H     -1.124919     0.399962     1.051505
H      0.776947    -0.233525    -1.208334
H      0.618176    -1.416245     0.077251
H      1.659005     1.130886     0.259661
9
Iteration 4, Energy=-154.0884491292, |grad|=0.017513
C     -0.979404     0.032332     0.034658
C      0.484774    -0.362618    -0.160643
O      1.363595     0.343975     0.681419
H     -1.299707     0.815262    -0.657485
H     -1.636527    -0.828500    -0.113078
H     -1.124930     0.397081     1.052736
H      0.776718    -0.236898    -1.208631
H      0.617918    -1.416521     0.079750
H      1.654107     1.131612     0.259972
9
Iteration 0, Energy=-153.9121024014, |grad|=1.152486
C     -0.904142     0.230863     0.043644
C      0.499287    -0.464730    -0.299542
O      1.177999     0.446466     0.792738
H     -1.281658     0.695760    -0.565190
H     -1.540819    -0.951757    -0.088248
H     -1.184036     0.461328     1.084169
H      0.712005    -0.098830    -1.225696
H      0.519351    -1.437155    -0.021169
H      1.754353     1.199639     0.300768
9
Iteration -1, Energy=-154.0884491292, |grad|=0.017513
C     -0.979404     0.032332     0.034658
C      0.484774    -0.362618    -0.160643
O      1.363595     0.343975     0.681419
H     -1.299707     0.815262    -0.657485
H     -1.636527    -0.828500    -0.113078
H     -1.124930     0.397081     1.052736
H      0.776718    -0.236898    -1.208631
H      0.617918    -1.416521     0.079750
H      1.654107     1.131612     0.259972
9
Iteration 0, Energy=-154.0884894576, |grad|=0.009222
C     -0.979273     0.032349     0.034767
C      0.485236    -0.362135    -0.160528
O      1.362715     0.341383     0.682011
H     -1.299166     0.815917    -0.656982
H     -1.636558    -0.828154    -0.113842
H     -1.124924     0.396434     1.052973
H      0.776605    -0.237710    -1.208656
H      0.617956    -1.416732     0.080436
H      1.653952     1.134374     0.258517
9
Iteration 1, Energy=-154.0885195638, |grad|=0.009728
C     -0.978986     0.032493     0.034790
C      0.485153    -0.362823    -0.160465
O      1.363827     0.342707     0.680768
H     -1.298243     0.817054    -0.656062
H     -1.636600    -0.827571    -0.115194
H     -1.124926     0.395308     1.053445
H      0.776513    -0.239019    -1.208775
H      0.617846    -1.416812     0.081395
H      1.651958     1.134387     0.258797
9
Iteration 2, Energy=-154.0885448440, |grad|=0.022735
C     -0.978392     0.032651     0.035012
C      0.485941    -0.362637    -0.160192
O      1.363439     0.339224     0.680459
H     -1.296101     0.819665    -0.654007
H     -1.636695    -0.826195    -0.118261
H     -1.124917     0.392736     1.054472
H      0.776178    -0.242140    -1.208957
H      0.617797    -1.417338     0.083865
H      1.649293     1.139758     0.256305
9
Iteration 3, Energy=-154.0885583801, |grad|=0.020221
C     -0.978372     0.032668     0.035005
C      0.485888    -0.362761    -0.160196
O      1.363639     0.339605     0.680272
H     -1.296048     0.819731    -0.653950
H     -1.636697    -0.826162    -0.118342
H     -1.124918     0.392670     1.054502
H      0.776178    -0.242212    -1.208968
H      0.617782    -1.417326     0.083908
H      1.649091     1.139512     0.256465
9
Iteration 4, Energy=-154.0885694548, |grad|=0.017996
C     -0.978352     0.032684     0.034999
C      0.485842    -0.362876    -0.160198
O      1.363823     0.339949     0.680096
H     -1.295992     0.819800    -0.653891
H     -1.636699    -0.826128    -0.118425
H     -1.124918     0.392601     1.054532
H      0.776177    -0.242286    -1.208980
H      0.617767    -1.417317     0.083955
H      1.648895     1.139298     0.256607
9
Iteration 0, Energy=-153.9692547737, |grad|=0.996303
C     -1.003774     0.044275     0.122160
C      0.593560    -0.347635    -0.289423
O      1.227915     0.403944     0.695878
H     -1.318620     0.609489    -0.561050
H     -1.490400    -0.835498    -0.033167
H     -1.139487     0.540735     1.105209
H      0.749689    -0.231989    -1.154032
H      0.552816    -1.515220    -0.167499
H      1.727040     1.024469     0.355603
9
Iteration -1, Energy=-154.0885694548, |grad|=0.017996
C     -0.978352     0.032684     0.034999
C      0.485842    -0.362876    -0.160198
O      1.363823     0.339949     0.680096
H     -1.295992     0.819800    -0.653891
H     -1.636699    -0.826128    -0.118425
H     -1.124918     0.392601     1.054532
H      0.776177    -0.242286    -1.208980
H      0.617767    -1.417317     0.083955
H      1.648895     1.139298     0.256607
9
Iteration 0, Energy=-154.0885786967, |grad|=0.016015
C     -0.978332     0.032699     0.034994
C      0.485801    -0.362983    -0.160199
O      1.363996     0.340264     0.679930
H     -1.295933     0.819872    -0.653830
H     -1.636701    -0.826091    -0.118513
H     -1.124919     0.392528     1.054564
H      0.776175    -0.242366    -1.208991
H      0.617753    -1.417309     0.084007
H      1.648703     1.139111     0.256734
9
Iteration 1, Energy=-154.0885866786, |grad|=0.014226
C     -0.978309     0.032714     0.034990
C      0.485763    -0.363087    -0.160199
O      1.364163     0.340560     0.679766
H     -1.295868     0.819951    -0.653763
H     -1.636703    -0.826051    -0.118609
H     -1.124919     0.392449     1.054599
H      0.776172    -0.242454    -1.209002
H      0.617739    -1.417304     0.084066
H      1.648506     1.138946     0.256850
9
Iteration 2, Energy=-154.0885940048, |grad|=0.012557
C     -0.978284     0.032731     0.034987
C      0.485728    -0.363194    -0.160199
O      1.364334     0.340853     0.679594
H     -1.295793     0.820044    -0.653686
H     -1.636706    -0.826003    -0.118721
H     -1.124920     0.392356     1.054639
H      0.776167    -0.242559    -1.209015
H      0.617724    -1.417300     0.084137
H      1.648291     1.138797     0.256960
9
Iteration 3, Energy=-154.0886015716, |grad|=0.010898
C     -0.978251     0.032751     0.034985
C      0.485691    -0.363317    -0.160196
O      1.364533     0.341175     0.679390
H     -1.295691     0.820168    -0.653582
H     -1.636710    -0.825939    -0.118871
H     -1.124920     0.392232     1.054692
H      0.776160    -0.242700    -1.209031
H      0.617707    -1.417300     0.084235
H      1.648022     1.138654     0.257074
9
Iteration 4, Energy=-154.0886118643, |grad|=0.009058
C     -0.978190     0.032785     0.034984
C      0.485646    -0.363508    -0.160187
O      1.364840     0.341633     0.679065
H     -1.295499     0.820401    -0.653390
H     -1.636717    -0.825819    -0.119150
H     -1.124920     0.391999     1.054789
H      0.776143    -0.242966    -1.209059
H      0.617679    -1.417306     0.084425
H      1.647561     1.138505     0.257219
9
Iteration 0, Energy=-154.0088283456, |grad|=0.672642
C     -1.014641     0.102620     0.149708
C      0.457659    -0.435700    -0.202836
O      1.226022     0.478128     0.807377
H     -1.258586     0.549962    -0.676427
H     -1.570215    -0.889352     0.049740
H     -1.103168     0.640422     1.105827
H      0.867163    -0.136281    -1.241438
H      0.515855    -1.378728    -0.106361
H      1.828367     1.076683     0.313680
9
Iteration -1, Energy=-154.0886118643, |grad|=0.009058
C     -0.978190     0.032785     0.034984
C      0.485646    -0.363508    -0.160187
O      1.364840     0.341633     0.679065
H     -1.295499     0.820401    -0.653390
H     -1.636717    -0.825819    -0.119150
H     -1.124920     0.391999     1.054789
H      0.776143    -0.242966    -1.209059
H      0.617679    -1.417306     0.084425
H      1.647561     1.138505     0.257219
9
Iteration 0, Energy=-154.0886485751, |grad|=0.011246
C     -0.977811     0.032971     0.035017
C      0.485552    -0.364379    -0.160104
O      1.366234     0.343268     0.677470
H     -1.294262     0.821905    -0.652162
H     -1.636765    -0.825034    -0.120945
H     -1.124919     0.390502     1.055407
H      0.776009    -0.244710    -1.209218
H      0.617542    -1.417415     0.085707
H      1.644963     1.138619     0.257525
9
Iteration 1, Energy=-154.0886614858, |grad|=0.021923
C     -0.977392     0.033054     0.035210
C      0.486300    -0.363923    -0.159884
O      1.365444     0.339546     0.677695
H     -1.292695     0.823789    -0.650672
H     -1.636827    -0.824021    -0.123160
H     -1.124907     0.388637     1.056129
H      0.775731    -0.246995    -1.209333
H      0.617550    -1.417847     0.087547
H      1.643338     1.143485     0.255164
9
Iteration 2, Energy=-154.0886741355, |grad|=0.019513
C     -0.977372     0.033070     0.035204
C      0.486250    -0.364044    -0.159887
O      1.365634     0.339916     0.677513
H     -1.292640     0.823855    -0.650615
H     -1.636828    -0.823987    -0.123241
H     -1.124908     0.388570     1.056159
H      0.775731    -0.247067    -1.209344
H      0.617534    -1.417836     0.087592
H      1.643142     1.143248     0.255317
9
Iteration 3, Energy=-154.0886845332, |grad|=0.017379
C     -0.977351     0.033085     0.035198
C      0.486205    -0.364155    -0.159890
O      1.365810     0.340250     0.677342
H     -1.292584     0.823924    -0.650556
H     -1.636830    -0.823952    -0.123325
H     -1.124908     0.388500     1.056189
H      0.775729    -0.247143    -1.209355
H      0.617520    -1.417827     0.087640
H      1.642952     1.143042     0.255453
9
Iteration 4, Energy=-154.0886932790, |grad|=0.015476
C     -0.977330     0.033100     0.035194
C      0.486166    -0.364260    -0.159891
O      1.365976     0.340558     0.677177
H     -1.292524     0.823997    -0.650493
H     -1.636832    -0.823915    -0.123414
H     -1.124909     0.388427     1.056221
H      0.775726    -0.247224    -1.209366
H      0.617506    -1.417820     0.087693
H      1.642763     1.142862     0.255576
9
Iteration 0, Energy=-153.8969288711, |grad|=1.055323
C     -1.024162     0.228401     0.188330
C      0.583958    -0.348809    -0.172778
O      1.184749     0.406366     0.812248
H     -1.258152     0.627227    -0.553084
H     -1.504506    -0.994757    -0.105736
H     -1.169418     0.531941     1.059468
H      0.700958    -0.104149    -1.239752
H      0.554688    -1.550965    -0.109694
H      1.848873     1.153451     0.307254
9
Iteration -1, Energy=-154.0886932790, |grad|=0.015476
C     -0.977330     0.033100     0.035194
C      0.486166    -0.364260    -0.159891
O      1.365976     0.340558     0.677177
H     -1.292524     0.823997    -0.650493
H     -1.636832    -0.823915    -0.123414
H     -1.124909     0.388427     1.056221
H      0.775726    -0.247224    -1.209366
H      0.617506    -1.417820     0.087693
H      1.642763     1.142862     0.255576
9
Iteration 0, Energy=-154.0887009342, |grad|=0.013746
C     -0.977307     0.033116     0.035190
C      0.486130    -0.364363    -0.159890
O      1.366138     0.340850     0.677014
H     -1.292457     0.824078    -0.650425
H     -1.636834    -0.823873    -0.123512
H     -1.124909     0.388345     1.056256
H      0.775722    -0.247315    -1.209378
H      0.617493    -1.417815     0.087754
H      1.642566     1.142702     0.255688
9
Iteration 1, Energy=-154.0887081313, |grad|=0.012112
C     -0.977281     0.033133     0.035187
C      0.486095    -0.364470    -0.159889
O      1.366309     0.341145     0.676838
H     -1.292376     0.824175    -0.650343
H     -1.636836    -0.823822    -0.123630
H     -1.124909     0.388247     1.056297
H      0.775717    -0.247426    -1.209391
H      0.617478    -1.417812     0.087829
H      1.642346     1.142555     0.255797
9
Iteration 2, Energy=-154.0887159361, |grad|=0.010447
C     -0.977244     0.033154     0.035185
C      0.486059    -0.364601    -0.159886
O      1.366516     0.341485     0.676620
H     -1.292262     0.824313    -0.650227
H     -1.636840    -0.823750    -0.123797
H     -1.124910     0.388109     1.056355
H      0.775707    -0.247583    -1.209408
H      0.617460    -1.417812     0.087940
H      1.642056     1.142410     0.255914
9
Iteration 3, Energy=-154.0887280230, |grad|=0.008576
C     -0.977164     0.033197     0.035186
C      0.486008    -0.364834    -0.159874
O      1.366884     0.342029     0.676216
H     -1.292012     0.824615    -0.649976
H     -1.636848    -0.823591    -0.124159
H     -1.124910     0.387806     1.056481
H      0.775682    -0.247931    -1.209443
H      0.617427    -1.417822     0.088189
H      1.641476     1.142256     0.256076
9
Iteration 4, Energy=-154.0888084591, |grad|=0.028354
C     -0.975752     0.033832     0.035361
C      0.485953    -0.367569    -0.159528
O      1.371194     0.346316     0.670938
H     -1.287338     0.830233    -0.645361
H     -1.637007    -0.820607    -0.130877
H     -1.124901     0.382187     1.058756
H      0.775112    -0.254512    -1.210006
H      0.616988    -1.418314     0.093077
H      1.632294     1.144160     0.256337
9
Iteration 0, Energy=-153.9997547504, |grad|=0.640543
C     -1.044962     0.047291    -0.005510
C      0.559367    -0.353538    -0.306355
O      1.157041     0.411110     0.662605
H     -1.403472     0.721259    -0.590509
H     -1.461234    -0.864344     0.044886
H     -1.056408     0.506734     1.042259
H      0.725136    -0.101562    -1.296309
H      0.546384    -1.547479    -0.015039
H      1.866655     1.155598     0.248887
9
Iteration -1, Energy=-154.0888084591, |grad|=0.028354
C     -0.975752     0.033832     0.035361
C      0.485953    -0.367569    -0.159528
O      1.371194     0.346316     0.670938
H     -1.287338     0.830233    -0.645361
H     -1.637007    -0.820607    -0.130877
H     -1.124901     0.382187     1.058756
H      0.775112    -0.254512    -1.210006
H      0.616988    -1.418314     0.093077
H      1.632294     1.144160     0.256337
9
Iteration 0, Energy=-154.0888974991, |grad|=0.008492
C     -0.975658     0.033789     0.035490
C      0.486573    -0.366716    -0.159416
O      1.369818     0.342422     0.672067
H     -1.286861     0.830782    -0.644936
H     -1.637021    -0.820284    -0.131514
H     -1.124894     0.381638     1.058935
H      0.774975    -0.255234    -1.209998
H      0.617079    -1.418570     0.093732
H      1.632529     1.147898     0.254337
9
Iteration 1, Energy=-154.0889868631, |grad|=0.033661
C     -0.973836     0.034597     0.035762
C      0.486655    -0.370086    -0.158958
O      1.374903     0.347605     0.665341
H     -1.280829     0.837873    -0.638964
H     -1.637158    -0.816365    -0.140072
H     -1.124895     0.374439     1.061740
H      0.774168    -0.263660    -1.210684
H      0.616572    -1.419152     0.099986
H      1.620964     1.150474     0.254546
9
Iteration 2, Energy=-154.0891083665, |grad|=0.008333
C     -0.973736     0.034521     0.035887
C      0.487308    -0.369063    -0.158861
O      1.373348     0.343036     0.666755
H     -1.280359     0.838404    -0.638553
H     -1.637170    -0.816043    -0.140684
H     -1.124890     0.373912     1.061916
H      0.774022    -0.264373    -1.210671
H      0.616693    -1.419438     0.100655
H      1.621326     1.154769     0.252253
9
Iteration 3, Energy=-154.0891761368, |grad|=0.058854
C     -0.969903     0.036043     0.036406
C      0.487288    -0.375623    -0.158066
O      1.383136     0.352485     0.653771
H     -1.267701     0.853012    -0.626062
H     -1.637385    -0.807775    -0.158391
H     -1.124915     0.358987     1.067671
H      0.772210    -0.281902    -1.212193
H      0.615873    -1.420689     0.113702
H      1.597938     1.161186     0.251857
9
Iteration 4, Energy=-154.0895235764, |grad|=0.008060
C     -0.969929     0.035929     0.036650
C      0.488549    -0.373789    -0.157858
O      1.380471     0.344656     0.656216
H     -1.267229     0.853480    -0.625669
H     -1.637383    -0.807423    -0.158948
H     -1.124899     0.358470     1.067737
H      0.772000    -0.282625    -1.212094
H      0.616084    -1.421075     0.114457
H      1.598878     1.168102     0.248206
9
Iteration 0, Energy=-153.9394283418, |grad|=1.102101
C     -0.990132     0.195617     0.106282
C      0.584693    -0.399502    -0.226531
O      1.204102     0.451363     0.847706
H     -1.290078     0.664497    -0.568728
H     -1.479021    -0.903769     0.056583
H     -1.052712     0.491738     0.962939
H      0.854135    -0.196818    -1.143660
H      0.611156    -1.430971    -0.096665
H      1.766090     1.019019     0.349618
9
Iteration -1, Energy=-154.0895235764, |grad|=0.008060
C     -0.969929     0.035929     0.036650
C      0.488549    -0.373789    -0.157858
O      1.380471     0.344656     0.656216
H     -1.267229     0.853480    -0.625669
H     -1.637383    -0.807423    -0.158948
H     -1.124899     0.358470     1.067737
H      0.772000    -0.282625    -1.212094
H      0.616084    -1.421075     0.114457
H      1.598878     1.168102     0.248206
9
Iteration 0, Energy=-154.0897995168, |grad|=0.049663
C     -0.965325     0.038283     0.038650
C      0.494165    -0.379788    -0.154989
O      1.387630     0.352882     0.635127
H     -1.248907     0.873084    -0.607229
H     -1.637256    -0.794543    -0.183678
H     -1.125074     0.336940     1.074052
H      0.768535    -0.307465    -1.212686
H      0.615321    -1.422332     0.132903
H      1.567454     1.178664     0.246546
9
Iteration 1, Energy=-154.0900692288, |grad|=0.011791
C     -0.964279     0.037777     0.038119
C      0.492318    -0.379315    -0.155945
O      1.387366     0.346596     0.639070
H     -1.248469     0.873691    -0.606845
H     -1.637290    -0.794294    -0.184261
H     -1.125215     0.336613     1.074781
H      0.768502    -0.308166    -1.212935
H      0.615691    -1.422548     0.133675
H      1.567919     1.185371     0.243038
9
Iteration 2, Energy=-154.0900818827, |grad|=0.022020
C     -0.962997     0.037626     0.037349
C      0.487669    -0.382482    -0.157475
O      1.392130     0.350723     0.640205
H     -1.246516     0.875896    -0.604969
H     -1.637241    -0.793151    -0.186866
H     -1.125344     0.334607     1.076266
H      0.768515    -0.310664    -1.214197
H      0.615907    -1.422604     0.135584
H      1.564419     1.185775     0.242799
9
Iteration 3, Energy=-154.0901425875, |grad|=0.009570
C     -0.963564     0.037823     0.037774
C      0.489480    -0.381469    -0.156793
O      1.390873     0.348482     0.639717
H     -1.246078     0.876282    -0.604604
H     -1.637263    -0.792867    -0.187391
H     -1.125259     0.334061     1.076117
H      0.768343    -0.311227    -1.214160
H      0.615895    -1.422884     0.136060
H      1.564114     1.187525     0.241977
9
Iteration 4, Energy=-154.0901840002, |grad|=0.011653
C     -0.964083     0.038331     0.038537
C      0.492890    -0.380530    -0.155356
O      1.389583     0.347680     0.636530
H     -1.244340     0.878113    -0.602980
H     -1.637428    -0.791781    -0.189715
H     -1.125172     0.331943     1.076330
H      0.767833    -0.313511    -1.214051
H      0.615763    -1.423320     0.137784
H      1.561496     1.188802     0.241619
9
Iteration 0, Energy=-153.9552468331, |grad|=0.892006
C     -1.060412     0.080864     0.095608
C      0.530738    -0.477493    -0.328018
O      1.185417     0.494662     0.781853
H     -1.355173     0.719607    -0.666547
H     -1.450975    -0.949290    -0.064042
H     -1.197164     0.518051     1.027081
H      0.767776    -0.099931    -1.115485
H      0.594806    -1.390230    -0.107918
H      1.880925     1.101851     0.427330
