9
Iteration -1, Energy=-153.4131858102, |grad|=0.690948
C     -0.749320     0.785481     0.676310
C      0.475042    -0.755240    -0.148926
O      0.884636     0.678882     0.787447
H     -1.220504     0.061008    -0.919495
H     -1.263929    -1.190967    -0.355146
H     -1.464970     0.383747     1.384355
H      0.828394    -0.225776    -1.436099
H      0.156280    -1.747109    -0.096200
H      1.682761     1.334180     0.209937
9
Iteration 0, Energy=-153.6107203585, |grad|=0.449903
C     -0.655100     0.721741     0.512121
C      0.390691    -0.495000    -0.244798
O      1.032722     0.734059     0.779144
H     -1.239062    -0.018583    -0.869105
H     -1.315872    -1.137887    -0.431569
H     -1.435985     0.360793     1.433787
H      0.800380    -0.288689    -1.312054
H      0.180652    -1.829653    -0.059308
H      1.569965     1.277425     0.293965
9
Iteration 1, Energy=-153.7282543310, |grad|=0.452324
C     -0.605493     0.588417     0.424477
C      0.266117    -0.449570    -0.139810
O      1.006909     0.587801     0.866995
H     -1.294892    -0.165174    -0.826765
H     -1.384568    -1.029835    -0.539780
H     -1.301247     0.366165     1.357852
H      0.765770    -0.297342    -1.226178
H      0.249892    -1.648974    -0.048776
H      1.625904     1.372717     0.234167
9
Iteration 2, Energy=-153.8017536307, |grad|=0.280655
C     -0.614347     0.585754     0.437372
C      0.319554    -0.449782    -0.152711
O      1.096084     0.646460     0.796640
H     -1.346637    -0.245916    -0.832353
H     -1.422446    -0.975736    -0.589775
H     -1.252331     0.360415     1.320683
H      0.731711    -0.295001    -1.168126
H      0.267076    -1.582235    -0.020293
H      1.549728     1.280246     0.310745
9
Iteration 3, Energy=-153.8226940044, |grad|=0.274179
C     -0.589957     0.582706     0.396716
C      0.331923    -0.394891    -0.113540
O      1.081119     0.563478     0.831415
H     -1.386469    -0.274694    -0.850724
H     -1.458297    -0.973079    -0.615766
H     -1.222698     0.345900     1.320296
H      0.718520    -0.287093    -1.156090
H      0.290328    -1.545908     0.007835
H      1.563922     1.307786     0.282040
9
Iteration 4, Energy=-153.8418927717, |grad|=0.236970
C     -0.616124     0.602313     0.404099
C      0.366621    -0.398502    -0.109875
O      1.128119     0.581162     0.796230
H     -1.415709    -0.281658    -0.870826
H     -1.485459    -0.985121    -0.628977
H     -1.193593     0.339212     1.302146
H      0.710896    -0.278685    -1.141066
H      0.305586    -1.507913     0.031452
H      1.528055     1.253397     0.318998
9
Iteration 0, Energy=-152.8492911599, |grad|=3.280645
C     -1.369400     0.710728     0.379857
C      0.309185    -0.780152    -0.494506
O      0.891508     0.799448     0.918247
H     -0.885719     0.396831    -0.116399
H     -1.495547    -1.154050    -0.076365
H     -1.676674     0.210424     0.803527
H      0.931330    -0.620307    -1.124264
H      0.231376    -1.475129    -0.269181
H      2.047411     1.212525     0.119334
9
Iteration -1, Energy=-153.8418927717, |grad|=0.236970
C     -0.616124     0.602313     0.404099
C      0.366621    -0.398502    -0.109875
O      1.128119     0.581162     0.796230
H     -1.415709    -0.281658    -0.870826
H     -1.485459    -0.985121    -0.628977
H     -1.193593     0.339212     1.302146
H      0.710896    -0.278685    -1.141066
H      0.305586    -1.507913     0.031452
H      1.528055     1.253397     0.318998
9
Iteration 0, Energy=-153.8528229384, |grad|=0.213108
C     -0.611149     0.602344     0.378826
C      0.372721    -0.357770    -0.090249
O      1.121514     0.516176     0.822248
H     -1.439991    -0.291029    -0.885581
H     -1.507793    -0.991299    -0.640754
H     -1.178474     0.328821     1.305573
H      0.707914    -0.271620    -1.138183
H      0.322368    -1.487850     0.055275
H      1.541281     1.276431     0.295027
9
Iteration 1, Energy=-153.8633845267, |grad|=0.179992
C     -0.630679     0.612657     0.378052
C      0.386179    -0.361412    -0.088784
O      1.161695     0.534105     0.800226
H     -1.461133    -0.298079    -0.899141
H     -1.526135    -0.996684    -0.649923
H     -1.162226     0.322600     1.296847
H      0.706536    -0.263993    -1.130774
H      0.334412    -1.460177     0.074262
H      1.519743     1.235188     0.321417
9
Iteration 2, Energy=-153.8693890793, |grad|=0.202864
C     -0.634824     0.613210     0.359553
C      0.393478    -0.327455    -0.076742
O      1.163428     0.472967     0.824277
H     -1.485534    -0.305502    -0.914738
H     -1.547570    -1.003464    -0.659862
H     -1.149244     0.312760     1.298083
H      0.705752    -0.256336    -1.127298
H      0.350220    -1.440377     0.099610
H      1.532684     1.258402     0.299298
9
Iteration 3, Energy=-153.8770955358, |grad|=0.123480
C     -0.648435     0.618606     0.358808
C      0.397625    -0.335298    -0.076581
O      1.196467     0.496631     0.806029
H     -1.499480    -0.309753    -0.923633
H     -1.558963    -1.006348    -0.665091
H     -1.141417     0.308322     1.293003
H      0.706809    -0.250777    -1.123697
H      0.356902    -1.422855     0.111424
H      1.518883     1.225677     0.321921
9
Iteration 4, Energy=-153.8806613750, |grad|=0.100033
C     -0.652713     0.618489     0.352454
C      0.401878    -0.322100    -0.072434
O      1.202288     0.474679     0.812504
H     -1.511370    -0.313052    -0.931153
H     -1.568846    -1.009115    -0.669306
H     -1.136578     0.303897     1.292631
H      0.707221    -0.247105    -1.121726
H      0.363318    -1.414416     0.123310
H      1.523193     1.232927     0.315902
9
Iteration 0, Energy=-120.8656011411, |grad|=847.124147
C     -0.898482     0.512016     0.044382
C      0.579229    -0.621531    -0.606410
O      0.721235     0.550782     0.690328
H     -0.897961     0.453390     0.006210
H     -1.024148    -1.419570    -0.471507
H     -1.474194     0.152668     1.290867
H      0.440868    -0.610093    -1.303101
H      0.276262    -1.842842     0.025142
H      1.572892     1.376957     0.014300
9
Iteration -1, Energy=-153.8806613750, |grad|=0.100033
C     -0.652713     0.618489     0.352454
C      0.401878    -0.322100    -0.072434
O      1.202288     0.474679     0.812504
H     -1.511370    -0.313052    -0.931153
H     -1.568846    -1.009115    -0.669306
H     -1.136578     0.303897     1.292631
H      0.707221    -0.247105    -1.121726
H      0.363318    -1.414416     0.123310
H      1.523193     1.232927     0.315902
9
Iteration 0, Energy=-153.8860925381, |grad|=0.116818
C     -0.668111     0.621268     0.343326
C      0.409331    -0.313500    -0.066181
O      1.237479     0.471175     0.803012
H     -1.537448    -0.320108    -0.947535
H     -1.589903    -1.014493    -0.678101
H     -1.126427     0.294612     1.288900
H      0.709359    -0.238181    -1.117083
H      0.375694    -1.390677     0.146757
H      1.518418     1.214108     0.329087
9
Iteration 1, Energy=-153.8885211994, |grad|=0.087152
C     -0.672234     0.620418     0.339027
C      0.413383    -0.303922    -0.063759
O      1.241323     0.448341     0.811270
H     -1.547598    -0.322605    -0.953720
H     -1.597922    -1.016405    -0.681159
H     -1.123786     0.291076     1.288351
H      0.710088    -0.235393    -1.115222
H      0.380262    -1.384668     0.156296
H      1.524875     1.227363     0.321099
9
Iteration 2, Energy=-153.8894629199, |grad|=0.074157
C     -0.674446     0.620456     0.337758
C      0.414199    -0.303303    -0.062825
O      1.247520     0.449932     0.808782
H     -1.551687    -0.323574    -0.956187
H     -1.601071    -1.017082    -0.682332
H     -1.122843     0.289642     1.287784
H      0.710648    -0.234127    -1.114576
H      0.381758    -1.381542     0.159582
H      1.524313     1.223804     0.324197
9
Iteration 3, Energy=-153.8948569860, |grad|=0.142131
C     -0.698452     0.619388     0.322754
C      0.426653    -0.288544    -0.052226
O      1.307132     0.442877     0.793226
H     -1.598846    -0.334605    -0.984415
H     -1.637328    -1.024785    -0.695632
H     -1.112698     0.273322     1.281858
H      0.716533    -0.220381    -1.106710
H      0.399216    -1.348350     0.198229
H      1.526182     1.205283     0.345099
9
Iteration 4, Energy=-153.8970082799, |grad|=0.052299
C     -0.699656     0.618015     0.321385
C      0.430052    -0.282690    -0.051316
O      1.305702     0.422752     0.801265
H     -1.604076    -0.335699    -0.987191
H     -1.641187    -1.025380    -0.696838
H     -1.112688     0.271773     1.281442
H      0.716958    -0.219705    -1.105630
H      0.400898    -1.347106     0.202528
H      1.532388     1.222245     0.336536
9
Iteration 0, Energy=-153.2066882112, |grad|=2.488219
C     -0.810915     0.385294     0.097942
C      0.353518    -0.736308    -0.494658
O      0.753286     0.609274     1.009135
H     -1.366566     0.037484    -0.491317
H     -1.552562    -0.964583    -0.150211
H     -1.567211     0.411191     0.805730
H      0.607724    -0.575714    -1.162025
H     -0.045183    -1.888746    -0.259418
H      1.938952     1.119836     0.009415
9
Iteration -1, Energy=-153.8970082799, |grad|=0.052299
C     -0.699656     0.618015     0.321385
C      0.430052    -0.282690    -0.051316
O      1.305702     0.422752     0.801265
H     -1.604076    -0.335699    -0.987191
H     -1.641187    -1.025380    -0.696838
H     -1.112688     0.271773     1.281442
H      0.716958    -0.219705    -1.105630
H      0.400898    -1.347106     0.202528
H      1.532388     1.222245     0.336536
9
Iteration 0, Energy=-153.8984109951, |grad|=0.060498
C     -0.704718     0.615765     0.317930
C      0.434334    -0.280124    -0.048124
O      1.323940     0.426129     0.793715
H     -1.619637    -0.338725    -0.995434
H     -1.652471    -1.027040    -0.700260
H     -1.112871     0.266774     1.279337
H      0.719477    -0.216869    -1.103311
H      0.404499    -1.339890     0.212633
H      1.535839     1.218184     0.345696
9
Iteration 1, Energy=-153.8987241217, |grad|=0.109667
C     -0.709025     0.612741     0.314667
C      0.442124    -0.271175    -0.045721
O      1.332733     0.401112     0.800255
H     -1.636380    -0.341810    -1.003886
H     -1.664588    -1.028763    -0.703736
H     -1.113695     0.261622     1.277113
H      0.721568    -0.215003    -1.100481
H      0.409157    -1.334166     0.224041
H      1.546497     1.239646     0.339929
9
Iteration 2, Energy=-153.9003967712, |grad|=0.040420
C     -0.710554     0.612569     0.313780
C      0.441551    -0.274808    -0.044491
O      1.343653     0.417747     0.791397
H     -1.641583    -0.342696    -1.006381
H     -1.668255    -1.029177    -0.704735
H     -1.114170     0.259804     1.276108
H      0.722853    -0.214164    -1.100255
H      0.410008    -1.331076     0.226209
H      1.544889     1.226006     0.350551
9
Iteration 3, Energy=-153.9015202598, |grad|=0.091187
C     -0.715696     0.607613     0.309048
C      0.454180    -0.261021    -0.039757
O      1.363733     0.397748     0.790582
H     -1.671063    -0.347881    -1.020160
H     -1.689371    -1.031696    -0.710476
H     -1.117191     0.250580     1.271463
H      0.727105    -0.212288    -1.096001
H      0.417950    -1.322903     0.244214
H      1.558744     1.244055     0.353269
9
Iteration 4, Energy=-153.9026224666, |grad|=0.031451
C     -0.716824     0.608088     0.308713
C      0.453155    -0.266687    -0.039027
O      1.372260     0.411642     0.784793
H     -1.675218    -0.348492    -1.021905
H     -1.692273    -1.031996    -0.711186
H     -1.117796     0.249097     1.270431
H      0.728221    -0.211789    -1.096078
H      0.418843    -1.319380     0.245217
H      1.558023     1.233720     0.361224
9
Iteration -1, Energy=-153.9026224666, |grad|=0.031451
C     -0.716824     0.608088     0.308713
C      0.453155    -0.266687    -0.039027
O      1.372260     0.411642     0.784793
H     -1.675218    -0.348492    -1.021905
H     -1.692273    -1.031996    -0.711186
H     -1.117796     0.249097     1.270431
H      0.728221    -0.211789    -1.096078
H      0.418843    -1.319380     0.245217
H      1.558023     1.233720     0.361224
9
Iteration 0, Energy=-153.9033920446, |grad|=0.083620
C     -0.718472     0.604711     0.305633
C      0.464079    -0.257722    -0.035284
O      1.391557     0.395370     0.785632
H     -1.706032    -0.353469    -1.034488
H     -1.714228    -1.034237    -0.716727
H     -1.122960     0.239257     1.264408
H      0.733270    -0.211868    -1.092746
H      0.428303    -1.310896     0.260895
H      1.572873     1.253057     0.364859
9
Iteration 1, Energy=-153.9042949204, |grad|=0.024309
C     -0.718763     0.605071     0.305646
C      0.463793    -0.260957    -0.034620
O      1.397662     0.408536     0.779994
H     -1.709380    -0.353934    -1.035704
H     -1.716594    -1.034459    -0.717292
H     -1.123562     0.238121     1.263406
H      0.734165    -0.211749    -1.092786
H      0.429025    -1.309179     0.261603
H      1.572046     1.242754     0.371936
9
Iteration 2, Energy=-153.9049848879, |grad|=0.070238
C     -0.716703     0.603489     0.304870
C      0.477893    -0.250386    -0.030531
O      1.413224     0.397310     0.778754
H     -1.742392    -0.358888    -1.047419
H     -1.740329    -1.036722    -0.723108
H     -1.130061     0.227771     1.255416
H      0.739936    -0.213688    -1.089704
H      0.440232    -1.303673     0.276180
H      1.586590     1.258990     0.377724
9
Iteration 3, Energy=-153.9056006397, |grad|=0.019620
C     -0.716587     0.604118     0.304730
C      0.476137    -0.255294    -0.030323
O      1.418809     0.408390     0.775740
H     -1.745082    -0.359225    -1.048271
H     -1.742259    -1.036905    -0.723571
H     -1.130567     0.226769     1.254688
H      0.740822    -0.213530    -1.089901
H      0.441075    -1.301239     0.276232
H      1.586043     1.251120     0.382859
9
Iteration 4, Energy=-153.9059124081, |grad|=0.061605
C     -0.711550     0.604033     0.304492
C      0.481849    -0.252568    -0.028599
O      1.430529     0.400084     0.780471
H     -1.770498    -0.362805    -1.056166
H     -1.760862    -1.038600    -0.728231
H     -1.135485     0.218864     1.248189
H      0.746300    -0.215358    -1.087899
H      0.451248    -1.295697     0.285182
H      1.596860     1.266251     0.384745
9
Iteration -1, Energy=-153.9059124081, |grad|=0.061605
C     -0.711550     0.604033     0.304492
C      0.481849    -0.252568    -0.028599
O      1.430529     0.400084     0.780471
H     -1.770498    -0.362805    -1.056166
H     -1.760862    -1.038600    -0.728231
H     -1.135485     0.218864     1.248189
H      0.746300    -0.215358    -1.087899
H      0.451248    -1.295697     0.285182
H      1.596860     1.266251     0.384745
9
Iteration 0, Energy=-153.9063951558, |grad|=0.016936
C     -0.711546     0.604381     0.304981
C      0.483110    -0.253417    -0.027913
O      1.433245     0.409908     0.775874
H     -1.772847    -0.363073    -1.056878
H     -1.762601    -1.038785    -0.728670
H     -1.135755     0.218270     1.247259
H      0.746944    -0.215420    -1.087794
H      0.451736    -1.295638     0.285662
H      1.596105     1.257978     0.389662
9
Iteration 1, Energy=-153.9066122042, |grad|=0.039306
C     -0.708916     0.605031     0.306173
C      0.493247    -0.247313    -0.025138
O      1.435030     0.405556     0.774816
H     -1.788252    -0.365029    -1.061415
H     -1.774136    -1.039954    -0.731672
H     -1.138069     0.214113     1.242932
H      0.750331    -0.216690    -1.086207
H      0.457541    -1.295762     0.291204
H      1.601615     1.264252     0.391488
9
Iteration 2, Energy=-153.9068225236, |grad|=0.016579
C     -0.708168     0.605348     0.305768
C      0.490780    -0.251118    -0.025512
O      1.439311     0.411824     0.774603
H     -1.790549    -0.365323    -1.062054
H     -1.775853    -1.040097    -0.732140
H     -1.138455     0.213270     1.242556
H      0.751204    -0.216599    -1.086230
H      0.458531    -1.293737     0.291233
H      1.601591     1.260637     0.393958
9
Iteration 3, Energy=-153.9068848981, |grad|=0.041883
C     -0.704715     0.604967     0.305704
C      0.491605    -0.249825    -0.025381
O      1.443313     0.406114     0.779360
H     -1.801346    -0.366754    -1.065074
H     -1.784046    -1.040821    -0.734411
H     -1.139896     0.210336     1.239942
H      0.754230    -0.217354    -1.085187
H      0.463314    -1.291960     0.294550
H      1.605933     1.269502     0.392679
9
Iteration 4, Energy=-153.9071094743, |grad|=0.014045
C     -0.704715     0.605360     0.306097
C      0.492853    -0.250803    -0.024714
O      1.445009     0.412779     0.776309
H     -1.803340    -0.366956    -1.065652
H     -1.785563    -1.041002    -0.734822
H     -1.140028     0.209875     1.239239
H      0.754833    -0.217372    -1.085090
H      0.463812    -1.291690     0.294860
H      1.605530     1.264014     0.395954
9
Iteration -1, Energy=-153.9071094743, |grad|=0.014045
C     -0.704715     0.605360     0.306097
C      0.492853    -0.250803    -0.024714
O      1.445009     0.412779     0.776309
H     -1.803340    -0.366956    -1.065652
H     -1.785563    -1.041002    -0.734822
H     -1.140028     0.209875     1.239239
H      0.754833    -0.217372    -1.085090
H      0.463812    -1.291690     0.294860
H      1.605530     1.264014     0.395954
9
Iteration 0, Energy=-153.9072545387, |grad|=0.034659
C     -0.702133     0.606144     0.307037
C      0.501241    -0.246964    -0.022422
O      1.445825     0.408919     0.776495
H     -1.816574    -0.368505    -1.069374
H     -1.795741    -1.042105    -0.737674
H     -1.141382     0.206623     1.235928
H      0.758289    -0.218271    -1.083546
H      0.468969    -1.291532     0.299033
H      1.609897     1.269896     0.396705
9
Iteration 1, Energy=-153.9074116734, |grad|=0.013450
C     -0.701399     0.606232     0.306789
C      0.499337    -0.249374    -0.022727
O      1.449147     0.414573     0.776019
H     -1.818444    -0.368748    -1.069870
H     -1.797183    -1.042221    -0.738108
H     -1.141576     0.206042     1.235596
H      0.759071    -0.218233    -1.083530
H      0.469741    -1.290367     0.299113
H      1.609696     1.266300     0.398900
9
Iteration 2, Energy=-153.9074811111, |grad|=0.035875
C     -0.697689     0.605719     0.306856
C      0.499868    -0.248309    -0.022503
O      1.452997     0.410433     0.780725
H     -1.829384    -0.370138    -1.072808
H     -1.805718    -1.043022    -0.740673
H     -1.142391     0.203454     1.233074
H      0.762617    -0.218906    -1.082489
H      0.474605    -1.288936     0.302156
H      1.613486     1.273909     0.397844
9
Iteration 3, Energy=-153.9076462461, |grad|=0.012179
C     -0.697765     0.606154     0.307218
C      0.501328    -0.249198    -0.021880
O      1.454116     0.416098     0.778033
H     -1.831090    -0.370285    -1.073293
H     -1.807056    -1.043211    -0.741062
H     -1.142415     0.203110     1.232539
H      0.763156    -0.218901    -1.082335
H      0.475010    -1.288740     0.302372
H      1.613107     1.269178     0.400589
9
Iteration 4, Energy=-153.9077405276, |grad|=0.028258
C     -0.695777     0.606959     0.307877
C      0.508585    -0.246383    -0.020006
O      1.453666     0.413076     0.778189
H     -1.841227    -0.371378    -1.076061
H     -1.815088    -1.044191    -0.743495
H     -1.142940     0.200890     1.230415
H      0.766087    -0.219494    -1.080923
H      0.478936    -1.288889     0.305320
H      1.616149     1.273614     0.400867
9
Iteration -1, Energy=-153.9077405276, |grad|=0.028258
C     -0.695777     0.606959     0.307877
C      0.508585    -0.246383    -0.020006
O      1.453666     0.413076     0.778189
H     -1.841227    -0.371378    -1.076061
H     -1.815088    -1.044191    -0.743495
H     -1.142940     0.200890     1.230415
H      0.766087    -0.219494    -1.080923
H      0.478936    -1.288889     0.305320
H      1.616149     1.273614     0.400867
9
Iteration 0, Energy=-153.9078476228, |grad|=0.012155
C     -0.695029     0.606918     0.307688
C      0.506759    -0.248308    -0.020283
O      1.456535     0.417875     0.777981
H     -1.842930    -0.371605    -1.076494
H     -1.816442    -1.044302    -0.743942
H     -1.143003     0.200443     1.230108
H      0.766871    -0.219471    -1.080928
H      0.479658    -1.287979     0.305403
H      1.615971     1.270634     0.402649
9
Iteration 1, Energy=-153.9078820627, |grad|=0.031114
C     -0.692218     0.606342     0.307871
C      0.507217    -0.247150    -0.020061
O      1.458709     0.414019     0.781959
H     -1.850986    -0.372601    -1.078593
H     -1.822913    -1.044973    -0.746042
H     -1.143107     0.198861     1.228329
H      0.769761    -0.219949    -1.080154
H      0.483268    -1.287262     0.307560
H      1.618662     1.276917     0.401314
9
Iteration 2, Energy=-153.9080042518, |grad|=0.010460
C     -0.692186     0.606723     0.308068
C      0.508185    -0.248158    -0.019630
O      1.459811     0.418960     0.779879
H     -1.852464    -0.372726    -1.079001
H     -1.824102    -1.045151    -0.746415
H     -1.143092     0.198561     1.227982
H      0.770277    -0.219925    -1.079997
H      0.483647    -1.286984     0.307689
H      1.618316     1.272904     0.403606
9
Iteration 3, Energy=-153.9080942069, |grad|=0.026936
C     -0.689763     0.607517     0.308518
C      0.515155    -0.245825    -0.017912
O      1.459522     0.416418     0.780610
H     -1.863341    -0.373870    -1.081893
H     -1.832946    -1.046316    -0.749288
H     -1.143202     0.196392     1.226122
H      0.773760    -0.220475    -1.078379
H      0.487913    -1.286997     0.310587
H      1.621294     1.277361     0.403817
9
Iteration 4, Energy=-153.9081887337, |grad|=0.010649
C     -0.689127     0.607407     0.308434
C      0.513473    -0.247498    -0.018108
O      1.462051     0.420973     0.780334
H     -1.864796    -0.374068    -1.082251
H     -1.834138    -1.046423    -0.749712
H     -1.143139     0.196093     1.225812
H      0.774503    -0.220449    -1.078435
H      0.488517    -1.286264     0.310623
H      1.621047     1.274434     0.405486
9
Iteration -1, Energy=-153.9081887337, |grad|=0.010649
C     -0.689127     0.607407     0.308434
C      0.513473    -0.247498    -0.018108
O      1.462051     0.420973     0.780334
H     -1.864796    -0.374068    -1.082251
H     -1.834138    -1.046423    -0.749712
H     -1.143139     0.196093     1.225812
H      0.774503    -0.220449    -1.078435
H      0.488517    -1.286264     0.310623
H      1.621047     1.274434     0.405486
9
Iteration 0, Energy=-153.9082203628, |grad|=0.027099
C     -0.686534     0.606708     0.308689
C      0.513538    -0.246575    -0.017916
O      1.463974     0.417868     0.784161
H     -1.872086    -0.374961    -1.084098
H     -1.840162    -1.047117    -0.751811
H     -1.142790     0.194941     1.224264
H      0.777379    -0.220847    -1.077796
H      0.491787    -1.285700     0.312444
H      1.623286     1.279889     0.404246
9
Iteration 1, Energy=-153.9083136104, |grad|=0.009304
C     -0.686507     0.607094     0.308814
C      0.514555    -0.247438    -0.017542
O      1.464775     0.422096     0.782331
H     -1.873379    -0.375062    -1.084449
H     -1.841234    -1.047300    -0.752168
H     -1.142739     0.194691     1.224052
H      0.777838    -0.220819    -1.077608
H      0.492108    -1.285486     0.312543
H      1.622973     1.276428     0.406209
9
Iteration 2, Energy=-153.9083895553, |grad|=0.022572
C     -0.684363     0.607958     0.309012
C      0.521114    -0.245566    -0.016026
O      1.463991     0.420238     0.782831
H     -1.882903    -0.376026    -1.086928
H     -1.849199    -1.048481    -0.754927
H     -1.142454     0.192973     1.222876
H      0.781068    -0.221236    -1.076030
H      0.495783    -1.285600     0.314920
H      1.625353     1.279944     0.406455
9
Iteration 3, Energy=-153.9084587475, |grad|=0.009655
C     -0.683753     0.607743     0.308992
C      0.519420    -0.246963    -0.016220
O      1.466242     0.424026     0.782832
H     -1.884221    -0.376215    -1.087240
H     -1.850311    -1.048587    -0.755351
H     -1.142295     0.192780     1.222552
H      0.781799    -0.221221    -1.076124
H      0.496351    -1.284983     0.314957
H      1.625159     1.277625     0.407782
9
Iteration 4, Energy=-153.9084847657, |grad|=0.023710
C     -0.681504     0.606957     0.309318
C      0.519162    -0.246182    -0.016080
O      1.467838     0.421394     0.786406
H     -1.890469    -0.376985    -1.088782
H     -1.855619    -1.049269    -0.757317
H     -1.141619     0.192045     1.221235
H      0.784465    -0.221547    -1.075645
H      0.499157    -1.284570     0.316441
H      1.626982     1.282362     0.406606
9
Iteration -1, Energy=-153.9084847657, |grad|=0.023710
C     -0.681504     0.606957     0.309318
C      0.519162    -0.246182    -0.016080
O      1.467838     0.421394     0.786406
H     -1.890469    -0.376985    -1.088782
H     -1.855619    -1.049269    -0.757317
H     -1.141619     0.192045     1.221235
H      0.784465    -0.221547    -1.075645
H      0.499157    -1.284570     0.316441
H      1.626982     1.282362     0.406606
9
Iteration 0, Energy=-153.9085567943, |grad|=0.008642
C     -0.681456     0.607353     0.309369
C      0.520177    -0.246974    -0.015750
O      1.468478     0.425184     0.784753
H     -1.891664    -0.377075    -1.089100
H     -1.856636    -1.049460    -0.757676
H     -1.141549     0.191816     1.221132
H      0.784898    -0.221514    -1.075435
H      0.499451    -1.284381     0.316521
H      1.626692     1.279257     0.408369
9
Iteration 1, Energy=-153.9086039902, |grad|=0.019014
C     -0.679888     0.607981     0.309330
C      0.524777    -0.245610    -0.014776
O      1.467543     0.423248     0.785452
H     -1.898185    -0.377734    -1.090758
H     -1.862237    -1.050374    -0.759729
H     -1.141128     0.190751     1.220631
H      0.787215    -0.221778    -1.074267
H      0.501967    -1.284526     0.318095
H      1.628327     1.282247     0.408203
9
Iteration 2, Energy=-153.9086527491, |grad|=0.008530
C     -0.679440     0.607839     0.309386
C      0.523740    -0.246666    -0.014835
O      1.469220     0.426523     0.785225
H     -1.899385    -0.377894    -1.091042
H     -1.863273    -1.050502    -0.760136
H     -1.140926     0.190624     1.220335
H      0.787863    -0.221768    -1.074315
H      0.502444    -1.284089     0.318148
H      1.628148     1.280140     0.409416
9
Iteration 3, Energy=-153.9086773007, |grad|=0.023420
C     -0.677220     0.607179     0.309742
C      0.524241    -0.245771    -0.014547
O      1.470375     0.424025     0.788566
H     -1.906007    -0.378689    -1.092655
H     -1.869027    -1.051348    -0.762350
H     -1.139981     0.189981     1.219123
H      0.790736    -0.222084    -1.073727
H      0.505325    -1.283803     0.319665
H      1.629948     1.284715     0.408366
9
Iteration 4, Energy=-153.9087456134, |grad|=0.007713
C     -0.677134     0.607533     0.309732
C      0.524965    -0.246620    -0.014288
O      1.471092     0.427725     0.787079
H     -1.907056    -0.378773    -1.092926
H     -1.869941    -1.051528    -0.762691
H     -1.139895     0.189782     1.219087
H      0.791148    -0.222043    -1.073551
H      0.505580    -1.283587     0.319698
H      1.629633     1.281715     0.410043
9
Iteration -1, Energy=-153.9087456134, |grad|=0.007713
C     -0.677134     0.607533     0.309732
C      0.524965    -0.246620    -0.014288
O      1.471092     0.427725     0.787079
H     -1.907056    -0.378773    -1.092926
H     -1.869941    -1.051528    -0.762691
H     -1.139895     0.189782     1.219087
H      0.791148    -0.222043    -1.073551
H      0.505580    -1.283587     0.319698
H      1.629633     1.281715     0.410043
9
Iteration 0, Energy=-153.9087970303, |grad|=0.019196
C     -0.675169     0.608284     0.309552
C      0.530151    -0.245293    -0.013225
O      1.470113     0.426138     0.787920
H     -1.914813    -0.379573    -1.094852
H     -1.876759    -1.052729    -0.765310
H     -1.139134     0.188654     1.218730
H      0.794053    -0.222315    -1.072144
H      0.508545    -1.283706     0.321447
H      1.631404     1.284744     0.410065
9
Iteration 1, Energy=-153.9088460198, |grad|=0.007946
C     -0.674756     0.608055     0.309669
C      0.528891    -0.246361    -0.013312
O      1.471831     0.429367     0.787797
H     -1.915876    -0.379725    -1.095094
H     -1.877700    -1.052852    -0.765701
H     -1.138862     0.188613     1.218396
H      0.794694    -0.222300    -1.072255
H      0.508975    -1.283274     0.321459
H      1.631194     1.282682     0.411223
9
Iteration 2, Energy=-153.9088681684, |grad|=0.019975
C     -0.672833     0.607238     0.310104
C      0.528651    -0.245696    -0.013153
O      1.473024     0.427359     0.791014
H     -1.921424    -0.380418    -1.096407
H     -1.882645    -1.053642    -0.767700
H     -1.137732     0.188323     1.217297
H      0.797294    -0.222555    -1.071891
H      0.511409    -1.283015     0.322660
H      1.632647     1.286611     0.410257
9
Iteration 3, Energy=-153.9089193290, |grad|=0.007270
C     -0.672751     0.607628     0.310035
C      0.529543    -0.246383    -0.012907
O      1.473482     0.430485     0.789649
H     -1.922397    -0.380494    -1.096654
H     -1.883514    -1.053832    -0.768036
H     -1.137651     0.188132     1.217355
H      0.797659    -0.222516    -1.071676
H      0.511636    -1.282857     0.322700
H      1.632383     1.284041     0.411717
9
Iteration 4, Energy=-153.9089568267, |grad|=0.015301
C     -0.671327     0.608321     0.309732
C      0.533647    -0.245380    -0.012142
O      1.472391     0.429102     0.790214
H     -1.927933    -0.381071    -1.097998
H     -1.888498    -1.054795    -0.770031
H     -1.136983     0.187380     1.217395
H      0.799761    -0.222682    -1.070567
H      0.513709    -1.283003     0.323905
H      1.633626     1.286333     0.411674
9
Iteration -1, Energy=-153.9089568267, |grad|=0.015301
C     -0.671327     0.608321     0.309732
C      0.533647    -0.245380    -0.012142
O      1.472391     0.429102     0.790214
H     -1.927933    -0.381071    -1.097998
H     -1.888498    -1.054795    -0.770031
H     -1.136983     0.187380     1.217395
H      0.799761    -0.222682    -1.070567
H      0.513709    -1.283003     0.323905
H      1.633626     1.286333     0.411674
9
Iteration 0, Energy=-153.9089896556, |grad|=0.007288
C     -0.670963     0.608106     0.309869
C      0.532676    -0.246203    -0.012188
O      1.473770     0.431716     0.790151
H     -1.928945    -0.381214    -1.098226
H     -1.889414    -1.054934    -0.770421
H     -1.136687     0.187374     1.217087
H      0.800366    -0.222676    -1.070652
H      0.514112    -1.282669     0.323942
H      1.633477     1.284704     0.412621
9
Iteration 1, Energy=-153.9090086668, |grad|=0.019516
C     -0.669143     0.607392     0.310285
C      0.532840    -0.245474    -0.011977
O      1.474612     0.429734     0.793153
H     -1.934389    -0.381894    -1.099493
H     -1.894365    -1.055811    -0.772484
H     -1.135417     0.187196     1.216138
H      0.802953    -0.222906    -1.070249
H      0.516444    -1.282499     0.325087
H      1.634856     1.288468     0.411722
9
Iteration 2, Energy=-153.9090563919, |grad|=0.006583
C     -0.669041     0.607739     0.310191
C      0.533514    -0.246179    -0.011779
O      1.475122     0.432732     0.791928
H     -1.935253    -0.381969    -1.099706
H     -1.895153    -1.055989    -0.772802
H     -1.135326     0.187032     1.216222
H      0.803299    -0.222862    -1.070067
H      0.516644    -1.282326     0.325098
H      1.634585     1.286026     0.413098
9
Iteration 3, Energy=-153.9091010544, |grad|=0.015637
C     -0.667161     0.608645     0.309704
C      0.538489    -0.245188    -0.010879
O      1.473926     0.431754     0.792556
H     -1.942294    -0.382732    -1.101374
H     -1.901620    -1.057319    -0.775481
H     -1.134283     0.186190     1.216449
H      0.806081    -0.223032    -1.068656
H      0.519240    -1.282443     0.326522
H      1.636013     1.288330     0.413341
9
Iteration 4, Energy=-153.9091357755, |grad|=0.007336
C     -0.666791     0.608280     0.309945
C      0.537108    -0.246072    -0.010970
O      1.475514     0.434451     0.792680
H     -1.943257    -0.382883    -1.101582
H     -1.902512    -1.057458    -0.775878
H     -1.133891     0.186278     1.216027
H      0.806734    -0.223027    -1.068834
H      0.519643    -1.282080     0.326531
H      1.635843     1.286715     0.414263
9
Iteration -1, Energy=-153.9091357755, |grad|=0.007336
C     -0.666791     0.608280     0.309945
C      0.537108    -0.246072    -0.010970
O      1.475514     0.434451     0.792680
H     -1.943257    -0.382883    -1.101582
H     -1.902512    -1.057458    -0.775878
H     -1.133891     0.186278     1.216027
H      0.806734    -0.223027    -1.068834
H      0.519643    -1.282080     0.326531
H      1.635843     1.286715     0.414263
9
Iteration 0, Energy=-153.9091464409, |grad|=0.016907
C     -0.665500     0.607556     0.310382
C      0.536845    -0.245396    -0.010871
O      1.476073     0.432450     0.795251
H     -1.947020    -0.383377    -1.102433
H     -1.906012    -1.058126    -0.777390
H     -1.132784     0.186348     1.215253
H      0.808636    -0.223193    -1.068652
H      0.521282    -1.282006     0.327321
H      1.636871     1.289949     0.413322
9
Iteration 1, Energy=-153.9091824158, |grad|=0.005976
C     -0.665380     0.607846     0.310278
C      0.537379    -0.245995    -0.010722
O      1.476513     0.434930     0.794281
H     -1.947783    -0.383450    -1.102615
H     -1.906723    -1.058292    -0.777689
H     -1.132684     0.186217     1.215349
H      0.808953    -0.223154    -1.068490
H      0.521466    -1.281853     0.327330
H      1.636650     1.287956     0.414459
9
Iteration 2, Energy=-153.9092519411, |grad|=0.016963
C     -0.662115     0.609435     0.309316
C      0.545246    -0.245017    -0.009326
O      1.475063     0.435271     0.794975
H     -1.959676    -0.384803    -1.105361
H     -1.917861    -1.060724    -0.782449
H     -1.130594     0.184996     1.215987
H      0.813843    -0.223351    -1.066132
H      0.525762    -1.281861     0.329509
H      1.638723     1.290258     0.415665
9
Iteration 3, Energy=-153.9092884125, |grad|=0.009357
C     -0.661868     0.608959     0.309627
C      0.543794    -0.245529    -0.009454
O      1.476271     0.436651     0.795476
H     -1.960194    -0.384905    -1.105463
H     -1.918354    -1.060791    -0.782685
H     -1.130241     0.185176     1.215536
H      0.814303    -0.223361    -1.066383
H      0.526028    -1.281622     0.329506
H      1.638653     1.289628     0.416024
9
Iteration 4, Energy=-153.9093134615, |grad|=0.007861
C     -0.661058     0.607779     0.310401
C      0.540970    -0.246128    -0.009650
O      1.478554     0.438232     0.797295
H     -1.962172    -0.385236    -1.105875
H     -1.920241    -1.061124    -0.783558
H     -1.129198     0.185611     1.214422
H      0.815704    -0.223431    -1.066832
H      0.526975    -1.281207     0.329729
H      1.638858     1.289710     0.416250
9
Iteration -1, Energy=-153.9093134615, |grad|=0.007861
C     -0.661058     0.607779     0.310401
C      0.540970    -0.246128    -0.009650
O      1.478554     0.438232     0.797295
H     -1.962172    -0.385236    -1.105875
H     -1.920241    -1.061124    -0.783558
H     -1.129198     0.185611     1.214422
H      0.815704    -0.223431    -1.066832
H      0.526975    -1.281207     0.329729
H      1.638858     1.289710     0.416250
9
Iteration 0, Energy=-153.9093271469, |grad|=0.005791
C     -0.660837     0.608047     0.310262
C      0.542294    -0.245711    -0.009479
O      1.477862     0.437393     0.797337
H     -1.963176    -0.385335    -1.106109
H     -1.921204    -1.061374    -0.783973
H     -1.129043     0.185494     1.214603
H      0.816047    -0.223452    -1.066509
H      0.527311    -1.281342     0.329962
H      1.639138     1.290485     0.416087
9
Iteration 1, Energy=-153.9093483888, |grad|=0.011568
C     -0.659836     0.608412     0.310057
C      0.543844    -0.246129    -0.009071
O      1.478296     0.439804     0.797060
H     -1.966729    -0.385775    -1.106900
H     -1.924611    -1.062162    -0.785486
H     -1.128210     0.185277     1.214707
H      0.817674    -0.223452    -1.065960
H      0.528544    -1.281122     0.330431
H      1.639420     1.289353     0.417345
9
Iteration 2, Energy=-153.9093663486, |grad|=0.005814
C     -0.659544     0.608253     0.310122
C      0.544009    -0.245638    -0.009092
O      1.478004     0.438123     0.798028
H     -1.967525    -0.385887    -1.107071
H     -1.925381    -1.062332    -0.785835
H     -1.127949     0.185321     1.214604
H      0.818056    -0.223503    -1.065868
H      0.528910    -1.281212     0.330658
H      1.639810     1.291081     0.416637
9
Iteration 3, Energy=-153.9093829077, |grad|=0.010072
C     -0.658762     0.608194     0.310221
C      0.544283    -0.246080    -0.008921
O      1.478893     0.440302     0.798199
H     -1.970200    -0.386240    -1.107657
H     -1.927962    -1.062926    -0.786998
H     -1.127138     0.185330     1.214382
H      0.819414    -0.223514    -1.065637
H      0.529882    -1.280993     0.330991
H      1.639982     1.290131     0.417602
9
Iteration 4, Energy=-153.9093974252, |grad|=0.005845
C     -0.658484     0.608199     0.310177
C      0.544844    -0.245613    -0.008853
O      1.478416     0.438767     0.798889
H     -1.971031    -0.386349    -1.107838
H     -1.928770    -1.063118    -0.787362
H     -1.126929     0.185310     1.214416
H      0.819768    -0.223550    -1.065478
H      0.530227    -1.281087     0.331208
H      1.640349     1.291645     0.417022
9
Iteration -1, Energy=-153.9093974252, |grad|=0.005845
C     -0.658484     0.608199     0.310177
C      0.544844    -0.245613    -0.008853
O      1.478416     0.438767     0.798889
H     -1.971031    -0.386349    -1.107838
H     -1.928770    -1.063118    -0.787362
H     -1.126929     0.185310     1.214416
H      0.819768    -0.223550    -1.065478
H      0.530227    -1.281087     0.331208
H      1.640349     1.291645     0.417022
9
Iteration 0, Energy=-153.9094115586, |grad|=0.009053
C     -0.657858     0.608316     0.310139
C      0.545440    -0.245996    -0.008665
O      1.478967     0.440694     0.798764
H     -1.973224    -0.386636    -1.108316
H     -1.930898    -1.063623    -0.788324
H     -1.126321     0.185258     1.214387
H      0.820835    -0.223544    -1.065207
H      0.530990    -1.280917     0.331467
H      1.640460     1.290652     0.417938
9
Iteration 1, Energy=-153.9094241122, |grad|=0.005940
C     -0.657560     0.608264     0.310137
C      0.545840    -0.245572    -0.008619
O      1.478614     0.439298     0.799511
H     -1.974096    -0.386755    -1.108504
H     -1.931749    -1.063825    -0.788711
H     -1.126067     0.185268     1.214368
H      0.821234    -0.223582    -1.065075
H      0.531356    -1.280992     0.331683
H      1.640818     1.292100     0.417392
9
Iteration 2, Energy=-153.9094365042, |grad|=0.008347
C     -0.657028     0.608324     0.310138
C      0.546213    -0.245949    -0.008472
O      1.479184     0.441102     0.799411
H     -1.975950    -0.387002    -1.108905
H     -1.933556    -1.064259    -0.789534
H     -1.125520     0.185254     1.214307
H      0.822160    -0.223573    -1.064875
H      0.532000    -1.280831     0.331888
H      1.640887     1.291139     0.418224
9
Iteration 3, Energy=-153.9094478908, |grad|=0.006043
C     -0.656721     0.608291     0.310125
C      0.546658    -0.245539    -0.008418
O      1.478830     0.439784     0.800121
H     -1.976864    -0.387128    -1.109101
H     -1.934451    -1.064475    -0.789943
H     -1.125255     0.185260     1.214303
H      0.822577    -0.223608    -1.064731
H      0.532376    -1.280903     0.332105
H      1.641240     1.292523     0.417721
9
Iteration 4, Energy=-153.9094591875, |grad|=0.008035
C     -0.656245     0.608360     0.310118
C      0.546999    -0.245916    -0.008284
O      1.479367     0.441543     0.799975
H     -1.978532    -0.387352    -1.109461
H     -1.936083    -1.064873    -0.790689
H     -1.124757     0.185250     1.214260
H      0.823413    -0.223595    -1.064549
H      0.532948    -1.280750     0.332279
H      1.641281     1.291537     0.418532
9
Iteration -1, Energy=-153.9094591875, |grad|=0.008035
C     -0.656245     0.608360     0.310118
C      0.546999    -0.245916    -0.008284
O      1.479367     0.441543     0.799975
H     -1.978532    -0.387352    -1.109461
H     -1.936083    -1.064873    -0.790689
H     -1.124757     0.185250     1.214260
H      0.823413    -0.223595    -1.064549
H      0.532948    -1.280750     0.332279
H      1.641281     1.291537     0.418532
9
Iteration 0, Energy=-153.9094700298, |grad|=0.006041
C     -0.655933     0.608326     0.310106
C      0.547436    -0.245515    -0.008230
O      1.479025     0.440264     0.800679
H     -1.979456    -0.387481    -1.109658
H     -1.936991    -1.065095    -0.791106
H     -1.124484     0.185261     1.214257
H      0.823838    -0.223628    -1.064406
H      0.533326    -1.280820     0.332494
H      1.641630     1.292892     0.418045
9
Iteration 1, Energy=-153.9094807967, |grad|=0.007915
C     -0.655477     0.608394     0.310100
C      0.547754    -0.245892    -0.008102
O      1.479554     0.442008     0.800522
H     -1.981056    -0.387699    -1.110000
H     -1.938562    -1.065482    -0.791827
H     -1.123997     0.185259     1.214220
H      0.824644    -0.223613    -1.064233
H      0.533871    -1.280669     0.332654
H      1.641660     1.291898     0.418849
9
Iteration 2, Energy=-153.9094913393, |grad|=0.005968
C     -0.655169     0.608362     0.310086
C      0.548186    -0.245497    -0.008050
O      1.479214     0.440747     0.801219
H     -1.981967    -0.387827    -1.110193
H     -1.939461    -1.065705    -0.792242
H     -1.123723     0.185274     1.214220
H      0.825065    -0.223644    -1.064091
H      0.534242    -1.280738     0.332865
H      1.642005     1.293233     0.418370
9
Iteration 3, Energy=-153.9095018102, |grad|=0.007815
C     -0.654720     0.608430     0.310079
C      0.548498    -0.245869    -0.007925
O      1.479734     0.442469     0.801064
H     -1.983540    -0.388044    -1.110528
H     -1.941011    -1.066092    -0.792957
H     -1.123237     0.185278     1.214187
H      0.825860    -0.223627    -1.063922
H      0.534775    -1.280590     0.333019
H      1.642032     1.292250     0.419166
9
Iteration 4, Energy=-153.9095120840, |grad|=0.005889
C     -0.654416     0.608399     0.310065
C      0.548923    -0.245478    -0.007875
O      1.479396     0.441223     0.801752
H     -1.984437    -0.388171    -1.110718
H     -1.941899    -1.066315    -0.793368
H     -1.122963     0.185296     1.214190
H      0.826276    -0.223657    -1.063782
H      0.535140    -1.280658     0.333224
H      1.642372     1.293566     0.418693
9
Iteration -1, Energy=-153.9095120840, |grad|=0.005889
C     -0.654416     0.608399     0.310065
C      0.548923    -0.245478    -0.007875
O      1.479396     0.441223     0.801752
H     -1.984437    -0.388171    -1.110718
H     -1.941899    -1.066315    -0.793368
H     -1.122963     0.185296     1.214190
H      0.826276    -0.223657    -1.063782
H      0.535140    -1.280658     0.333224
H      1.642372     1.293566     0.418693
9
Iteration 0, Energy=-153.9095222893, |grad|=0.007716
C     -0.653972     0.608467     0.310056
C      0.549230    -0.245846    -0.007752
O      1.479906     0.442922     0.801600
H     -1.985987    -0.388387    -1.111046
H     -1.943432    -1.066702    -0.794078
H     -1.122477     0.185306     1.214163
H      0.827063    -0.223638    -1.063615
H      0.535663    -1.280512     0.333373
H      1.642397     1.292594     0.419481
9
Iteration 1, Energy=-153.9095323036, |grad|=0.005813
C     -0.653673     0.608437     0.310042
C      0.549649    -0.245460    -0.007703
O      1.479570     0.441691     0.802281
H     -1.986869    -0.388514    -1.111231
H     -1.944309    -1.066924    -0.794486
H     -1.122203     0.185328     1.214168
H      0.827474    -0.223666    -1.063478
H      0.536020    -1.280580     0.333574
H      1.642732     1.293893     0.419015
9
Iteration 2, Energy=-153.9095422524, |grad|=0.007620
C     -0.653234     0.608506     0.310033
C      0.549951    -0.245823    -0.007584
O      1.480070     0.443368     0.802132
H     -1.988396    -0.388730    -1.111553
H     -1.945824    -1.067311    -0.795190
H     -1.121716     0.185345     1.214145
H      0.828251    -0.223646    -1.063314
H      0.536533    -1.280436     0.333718
H      1.642757     1.292932     0.419795
9
Iteration 3, Energy=-153.9095520179, |grad|=0.005739
C     -0.652938     0.608477     0.310018
C      0.550364    -0.245442    -0.007536
O      1.479737     0.442152     0.802806
H     -1.989266    -0.388856    -1.111735
H     -1.946692    -1.067533    -0.795594
H     -1.121443     0.185369     1.214152
H      0.828657    -0.223672    -1.063179
H      0.536884    -1.280503     0.333915
H      1.643087     1.294214     0.419335
9
Iteration 4, Energy=-153.9095617204, |grad|=0.007527
C     -0.652506     0.608546     0.310007
C      0.550661    -0.245800    -0.007419
O      1.480228     0.443807     0.802660
H     -1.990771    -0.389071    -1.112050
H     -1.948190    -1.067920    -0.796294
H     -1.120957     0.185392     1.214134
H      0.829426    -0.223650    -1.063017
H      0.537388    -1.280362     0.334053
H      1.643111     1.293263     0.420108
9
Iteration -1, Energy=-153.9095617204, |grad|=0.007527
C     -0.652506     0.608546     0.310007
C      0.550661    -0.245800    -0.007419
O      1.480228     0.443807     0.802660
H     -1.990771    -0.389071    -1.112050
H     -1.948190    -1.067920    -0.796294
H     -1.120957     0.185392     1.214134
H      0.829426    -0.223650    -1.063017
H      0.537388    -1.280362     0.334053
H      1.643111     1.293263     0.420108
9
Iteration 0, Energy=-153.9095712467, |grad|=0.005667
C     -0.652213     0.608518     0.309992
C      0.551068    -0.245423    -0.007373
O      1.479897     0.442606     0.803326
H     -1.991627    -0.389197    -1.112228
H     -1.949047    -1.068142    -0.796695
H     -1.120683     0.185419     1.214144
H      0.829827    -0.223675    -1.062884
H      0.537732    -1.280428     0.334246
H      1.643437     1.294528     0.419654
9
Iteration 1, Energy=-153.9095807128, |grad|=0.007436
C     -0.651786     0.608587     0.309981
C      0.551361    -0.245776    -0.007258
O      1.480380     0.444240     0.803183
H     -1.993111    -0.389412    -1.112538
H     -1.950529    -1.068529    -0.797389
H     -1.120197     0.185447     1.214129
H      0.830588    -0.223651    -1.062724
H      0.538226    -1.280288     0.334379
H      1.643459     1.293588     0.420419
9
Iteration 2, Energy=-153.9095900093, |grad|=0.005597
C     -0.651497     0.608560     0.309965
C      0.551761    -0.245404    -0.007213
O      1.480051     0.443052     0.803842
H     -1.993954    -0.389537    -1.112712
H     -1.951375    -1.068751    -0.797787
H     -1.119924     0.185478     1.214141
H      0.830984    -0.223675    -1.062593
H      0.538565    -1.280355     0.334568
H      1.643781     1.294837     0.419971
9
Iteration 3, Energy=-153.9095992481, |grad|=0.007348
C     -0.651075     0.608630     0.309953
C      0.552050    -0.245753    -0.007101
O      1.480526     0.444665     0.803701
H     -1.995418    -0.389751    -1.113016
H     -1.952841    -1.069138    -0.798476
H     -1.119439     0.185511     1.214131
H      0.831737    -0.223650    -1.062436
H      0.539050    -1.280217     0.334697
H      1.643802     1.293907     0.420729
9
Iteration 4, Energy=-153.9096083234, |grad|=0.005529
C     -0.650790     0.608604     0.309937
C      0.552445    -0.245385    -0.007057
O      1.480199     0.443492     0.804353
H     -1.996249    -0.389876    -1.113187
H     -1.953678    -1.069359    -0.798871
H     -1.119167     0.185544     1.214144
H      0.832128    -0.223672    -1.062306
H      0.539382    -1.280282     0.334881
H      1.644121     1.295139     0.420287
9
Iteration -1, Energy=-153.9096083234, |grad|=0.005529
C     -0.650790     0.608604     0.309937
C      0.552445    -0.245385    -0.007057
O      1.480199     0.443492     0.804353
H     -1.996249    -0.389876    -1.113187
H     -1.953678    -1.069359    -0.798871
H     -1.119167     0.185544     1.214144
H      0.832128    -0.223672    -1.062306
H      0.539382    -1.280282     0.334881
H      1.644121     1.295139     0.420287
9
Iteration 0, Energy=-153.9096173434, |grad|=0.007262
C     -0.650372     0.608674     0.309924
C      0.552729    -0.245729    -0.006947
O      1.480666     0.445085     0.804215
H     -1.997692    -0.390090    -1.113485
H     -1.955129    -1.069746    -0.799555
H     -1.118683     0.185582     1.214138
H      0.832873    -0.223645    -1.062152
H      0.539859    -1.280146     0.335006
H      1.644141     1.294219     0.421038
9
Iteration 1, Energy=-153.9096262061, |grad|=0.005462
C     -0.650091     0.608648     0.309908
C      0.553118    -0.245366    -0.006904
O      1.480342     0.443925     0.804860
H     -1.998511    -0.390214    -1.113652
H     -1.955956    -1.069967    -0.799946
H     -1.118411     0.185618     1.214153
H      0.833260    -0.223666    -1.062024
H      0.540185    -1.280211     0.335186
H      1.644456     1.295437     0.420602
9
Iteration 2, Energy=-153.9096350155, |grad|=0.007179
C     -0.649678     0.608719     0.309894
C      0.553399    -0.245705    -0.006797
O      1.480801     0.445498     0.804725
H     -1.999935    -0.390427    -1.113945
H     -1.957392    -1.070353    -0.800625
H     -1.117928     0.185661     1.214150
H      0.833996    -0.223637    -1.061871
H      0.540653    -1.280076     0.335307
H      1.644475     1.294526     0.421345
9
Iteration 3, Energy=-153.9096436731, |grad|=0.005397
C     -0.649401     0.608695     0.309877
C      0.553782    -0.245346    -0.006755
O      1.480479     0.444350     0.805363
H     -2.000742    -0.390552    -1.114109
H     -1.958210    -1.070574    -0.801013
H     -1.117656     0.185699     1.214167
H      0.834379    -0.223657    -1.061746
H      0.540974    -1.280141     0.335483
H      1.644786     1.295728     0.420915
9
Iteration 4, Energy=-153.9096522796, |grad|=0.007097
C     -0.648993     0.608765     0.309863
C      0.554059    -0.245681    -0.006650
O      1.480931     0.445904     0.805230
H     -2.002147    -0.390764    -1.114397
H     -1.959630    -1.070960    -0.801687
H     -1.117174     0.185747     1.214167
H      0.835107    -0.223626    -1.061595
H      0.541434    -1.280008     0.335599
H      1.644805     1.294828     0.421652
9
Iteration -1, Energy=-153.9096522796, |grad|=0.007097
C     -0.648993     0.608765     0.309863
C      0.554059    -0.245681    -0.006650
O      1.480931     0.445904     0.805230
H     -2.002147    -0.390764    -1.114397
H     -1.959630    -1.070960    -0.801687
H     -1.117174     0.185747     1.214167
H      0.835107    -0.223626    -1.061595
H      0.541434    -1.280008     0.335599
H      1.644805     1.294828     0.421652
9
Iteration 0, Energy=-153.9096607397, |grad|=0.005334
C     -0.648718     0.608742     0.309846
C      0.554437    -0.245325    -0.006609
O      1.480611     0.444770     0.805861
H     -2.002943    -0.390888    -1.114558
H     -1.960439    -1.071180    -0.802072
H     -1.116904     0.185787     1.214186
H      0.835485    -0.223645    -1.061471
H      0.541749    -1.280071     0.335773
H      1.645112     1.296015     0.421227
9
Iteration 1, Energy=-153.9096691506, |grad|=0.007018
C     -0.648315     0.608813     0.309831
C      0.554710    -0.245656    -0.006506
O      1.481056     0.446305     0.805731
H     -2.004329    -0.391101    -1.114840
H     -1.961845    -1.071566    -0.802741
H     -1.116423     0.185839     1.214189
H      0.836206    -0.223612    -1.061322
H      0.542201    -1.279940     0.335885
H      1.645130     1.295123     0.421957
9
Iteration 2, Energy=-153.9096774201, |grad|=0.005272
C     -0.648043     0.608791     0.309814
C      0.555083    -0.245305    -0.006466
O      1.480739     0.445183     0.806356
H     -2.005114    -0.391224    -1.114999
H     -1.962645    -1.071786    -0.803123
H     -1.116154     0.185882     1.214209
H      0.836580    -0.223630    -1.061200
H      0.542511    -1.280003     0.336054
H      1.645435     1.296296     0.421538
9
Iteration 3, Energy=-153.9096856423, |grad|=0.006940
C     -0.647645     0.608863     0.309798
C      0.555352    -0.245632    -0.006365
O      1.481177     0.446700     0.806227
H     -2.006483    -0.391436    -1.115276
H     -1.964037    -1.072171    -0.803788
H     -1.115674     0.185938     1.214215
H      0.837293    -0.223596    -1.061054
H      0.542955    -1.279874     0.336162
H      1.645452     1.295414     0.422261
9
Iteration 4, Energy=-153.9096937279, |grad|=0.005212
C     -0.647377     0.608841     0.309781
C      0.555721    -0.245283    -0.006326
O      1.480862     0.445589     0.806846
H     -2.007257    -0.391559    -1.115431
H     -1.964828    -1.072390    -0.804166
H     -1.115405     0.185983     1.214237
H      0.837663    -0.223612    -1.060933
H      0.543259    -1.279936     0.336329
H      1.645753     1.296573     0.421847
