9
Iteration -1, Energy=-154.0837996503, |grad|=0.044117
C     -0.977020     0.054531     0.039344
C      0.487693    -0.332548    -0.192952
O      1.302254     0.336299     0.743792
H     -1.353582     0.729531    -0.729129
H     -1.591671    -0.850511     0.025441
H     -1.069217     0.581118     0.999619
H      0.788253    -0.138478    -1.230198
H      0.594696    -1.412625    -0.042175
H      1.818594     1.032682     0.386258
9
Iteration 0, Energy=-154.0843833249, |grad|=0.059413
C     -0.977280     0.053879     0.035312
C      0.484312    -0.325026    -0.187773
O      1.305233     0.320355     0.751886
H     -1.354690     0.731318    -0.731808
H     -1.597106    -0.844075     0.028915
H     -1.069673     0.569254     0.994917
H      0.790027    -0.136048    -1.225589
H      0.600639    -1.406722    -0.038040
H      1.818537     1.037066     0.372179
9
Iteration 1, Energy=-154.0849708820, |grad|=0.035094
C     -0.978177     0.054365     0.032267
C      0.483032    -0.324225    -0.185418
O      1.313796     0.319380     0.752837
H     -1.355398     0.732475    -0.733440
H     -1.600947    -0.840538     0.030813
H     -1.070298     0.562238     0.992956
H      0.791269    -0.133974    -1.221992
H      0.603824    -1.402234    -0.035695
H      1.812900     1.032512     0.367673
9
Iteration 2, Energy=-154.0855525641, |grad|=0.015882
C     -0.980572     0.055962     0.025149
C      0.485382    -0.322798    -0.179253
O      1.331056     0.312521     0.753421
H     -1.357325     0.736354    -0.738314
H     -1.612045    -0.832437     0.034509
H     -1.072982     0.545639     0.990668
H      0.794820    -0.127776    -1.211446
H      0.611494    -1.392164    -0.028851
H      1.800172     1.024698     0.354117
9
Iteration 3, Energy=-154.0857041185, |grad|=0.012918
C     -0.979866     0.055951     0.024226
C      0.487718    -0.323802    -0.177507
O      1.336536     0.309057     0.751367
H     -1.357812     0.739262    -0.740843
H     -1.617745    -0.830150     0.033355
H     -1.075975     0.541528     0.993742
H      0.798074    -0.123818    -1.206927
H      0.613990    -1.392890    -0.024920
H      1.795081     1.024862     0.347508
9
Iteration 4, Energy=-154.0858879114, |grad|=0.019755
C     -0.984349     0.059975     0.025899
C      0.492191    -0.332712    -0.172545
O      1.350274     0.301923     0.745186
H     -1.353411     0.743306    -0.740109
H     -1.629306    -0.822421     0.024813
H     -1.085134     0.532524     1.000771
H      0.809041    -0.114233    -1.198539
H      0.618760    -1.399964    -0.015309
H      1.781934     1.031603     0.329834
9
Iteration 5, Energy=-154.0859850134, |grad|=0.018351
C     -0.980072     0.055616     0.029789
C      0.491110    -0.332019    -0.172612
O      1.356160     0.301644     0.740129
H     -1.349170     0.747573    -0.738271
H     -1.633563    -0.818676     0.016834
H     -1.090886     0.531928     1.006541
H      0.813253    -0.113863    -1.194496
H      0.619199    -1.408791    -0.011392
H      1.773969     1.036588     0.323479
9
Iteration 6, Energy=-154.0860616871, |grad|=0.011210
C     -0.979370     0.056345     0.030667
C      0.491356    -0.333996    -0.172620
O      1.353652     0.303489     0.739689
H     -1.347308     0.746995    -0.735621
H     -1.631600    -0.820143     0.015215
H     -1.090542     0.534106     1.006467
H      0.811736    -0.116733    -1.196426
H      0.617352    -1.408413    -0.013192
H      1.774725     1.038351     0.325822
9
Iteration 7, Energy=-154.0861869491, |grad|=0.010029
C     -0.977564     0.056611     0.033478
C      0.492427    -0.337554    -0.171317
O      1.354286     0.304816     0.737485
H     -1.339573     0.749295    -0.728359
H     -1.630711    -0.819451     0.007279
H     -1.092940     0.534227     1.008178
H      0.810146    -0.123897    -1.197071
H      0.614820    -1.409576    -0.013774
H      1.769109     1.045528     0.324101
9
Iteration 8, Energy=-154.0863899157, |grad|=0.018283
C     -0.973058     0.056379     0.038676
C      0.494572    -0.343288    -0.166020
O      1.361474     0.305479     0.730889
H     -1.322082     0.758879    -0.714872
H     -1.632392    -0.815435    -0.011221
H     -1.099653     0.528910     1.013956
H      0.808212    -0.138591    -1.196279
H      0.612005    -1.413346    -0.010806
H      1.750922     1.061014     0.315678
9
Iteration 9, Energy=-154.0867506328, |grad|=0.032579
C     -0.966521     0.056338     0.047457
C      0.499775    -0.354118    -0.158976
O      1.379837     0.306004     0.717076
H     -1.284744     0.785203    -0.689646
H     -1.635326    -0.805058    -0.049738
H     -1.112275     0.511049     1.028149
H      0.801754    -0.171595    -1.193008
H      0.608767    -1.421284     0.001346
H      1.708733     1.093462     0.297340
9
Iteration 0, Energy=-154.0609623168, |grad|=0.379711
C     -0.970832     0.056840     0.122816
C      0.460212    -0.274835    -0.213980
O      1.297294     0.396691     0.753769
H     -1.314368     0.701356    -0.708140
H     -1.665743    -0.818755     0.011677
H     -1.124261     0.523662     1.058967
H      0.847184    -0.116968    -1.292795
H      0.517642    -1.376509     0.042372
H      1.753719     0.981989     0.303514
9
Iteration 1, Energy=-154.0413784344, |grad|=0.413339
C     -1.007112     0.070281     0.113993
C      0.497317    -0.402537    -0.234007
O      1.361721     0.365011     0.807997
H     -1.432860     0.767544    -0.746705
H     -1.543726    -0.803686    -0.009175
H     -1.130149     0.596760     0.954507
H      0.831123    -0.134637    -1.318334
H      0.687072    -1.509949     0.049460
H      1.846513     1.003039     0.317808
9
Iteration -1, Energy=-154.0867506328, |grad|=0.032579
C     -0.966521     0.056338     0.047457
C      0.499775    -0.354118    -0.158976
O      1.379837     0.306004     0.717076
H     -1.284744     0.785203    -0.689646
H     -1.635326    -0.805058    -0.049738
H     -1.112275     0.511049     1.028149
H      0.801754    -0.171595    -1.193008
H      0.608767    -1.421284     0.001346
H      1.708733     1.093462     0.297340
9
Iteration 0, Energy=-154.0869400894, |grad|=0.020388
C     -0.965472     0.054480     0.046167
C      0.497286    -0.350534    -0.158864
O      1.382101     0.309097     0.714185
H     -1.285632     0.788885    -0.692296
H     -1.634626    -0.804137    -0.049098
H     -1.110975     0.508370     1.029480
H      0.801065    -0.172294    -1.194387
H      0.610255    -1.423411     0.004581
H      1.705998     1.089545     0.300231
9
Iteration 1, Energy=-154.0870353110, |grad|=0.017096
C     -0.965535     0.055286     0.044907
C      0.496845    -0.349827    -0.158958
O      1.381847     0.307541     0.713675
H     -1.286089     0.791353    -0.693709
H     -1.634178    -0.803800    -0.048696
H     -1.109681     0.505538     1.030196
H      0.800190    -0.172972    -1.195411
H      0.611432    -1.423416     0.007434
H      1.705170     1.090298     0.300562
9
Iteration 2, Energy=-154.0873837981, |grad|=0.011482
C     -0.967470     0.064407     0.035285
C      0.495001    -0.351860    -0.162113
O      1.382492     0.301143     0.709035
H     -1.288749     0.808204    -0.701487
H     -1.630970    -0.801265    -0.046917
H     -1.099743     0.483908     1.034801
H      0.793286    -0.178884    -1.202131
H      0.618853    -1.419402     0.028385
H      1.697298     1.093748     0.305142
9
Iteration 3, Energy=-154.0875252155, |grad|=0.020685
C     -0.965050     0.062208     0.033582
C      0.495238    -0.351775    -0.167556
O      1.383766     0.300077     0.706460
H     -1.288152     0.815030    -0.696924
H     -1.630010    -0.795488    -0.053323
H     -1.094044     0.474378     1.035656
H      0.790374    -0.188639    -1.204575
H      0.617008    -1.416656     0.039081
H      1.690870     1.100863     0.307599
9
Iteration 4, Energy=-154.0877624432, |grad|=0.021233
C     -0.960232     0.062473     0.030436
C      0.495738    -0.353545    -0.170496
O      1.385805     0.300557     0.699957
H     -1.286267     0.824107    -0.687257
H     -1.630379    -0.788787    -0.065042
H     -1.085333     0.460303     1.037215
H      0.787481    -0.204173    -1.211037
H      0.613114    -1.412573     0.054179
H      1.680074     1.111638     0.312046
9
Iteration 5, Energy=-154.0884054095, |grad|=0.045855
C     -0.951275     0.070658     0.026292
C      0.505692    -0.360276    -0.184480
O      1.400116     0.308564     0.667614
H     -1.270300     0.873495    -0.642960
H     -1.635090    -0.767809    -0.128399
H     -1.049079     0.400760     1.053658
H      0.781394    -0.281805    -1.236329
H      0.594156    -1.410311     0.117924
H      1.624386     1.166723     0.326682
9
Iteration 6, Energy=-154.0887668849, |grad|=0.048281
C     -0.940129     0.066920     0.020159
C      0.502806    -0.376484    -0.182373
O      1.413237     0.318120     0.641691
H     -1.254892     0.911573    -0.608442
H     -1.635809    -0.749882    -0.176427
H     -1.030383     0.364367     1.072451
H      0.783113    -0.337864    -1.251712
H      0.580046    -1.403867     0.153186
H      1.582011     1.207116     0.331466
9
Iteration 7, Energy=-154.0892398692, |grad|=0.025630
C     -0.942893     0.067515     0.026970
C      0.501928    -0.374739    -0.177174
O      1.411710     0.322658     0.644129
H     -1.252050     0.899442    -0.611975
H     -1.635829    -0.755936    -0.167983
H     -1.043982     0.381021     1.068876
H      0.788714    -0.323905    -1.239770
H      0.582769    -1.409067     0.132603
H      1.589632     1.193012     0.324324
9
Iteration 8, Energy=-154.0896248367, |grad|=0.023664
C     -0.941769     0.072829     0.029731
C      0.503623    -0.375982    -0.177259
O      1.418627     0.327828     0.628968
H     -1.239054     0.916669    -0.596146
H     -1.636073    -0.750785    -0.189278
H     -1.042718     0.365516     1.076358
H      0.791523    -0.347680    -1.237659
H      0.580113    -1.414736     0.144334
H      1.565729     1.206342     0.320951
9
Iteration 9, Energy=-154.0903112183, |grad|=0.028385
C     -0.936998     0.080477     0.033538
C      0.505199    -0.385116    -0.173092
O      1.436878     0.336981     0.591162
H     -1.204881     0.962319    -0.557755
H     -1.632356    -0.731394    -0.238744
H     -1.044038     0.324492     1.094628
H      0.797054    -0.403988    -1.231400
H      0.576608    -1.422476     0.172966
H      1.502534     1.238706     0.308697
9
Iteration 0, Energy=-154.0628018841, |grad|=0.274873
C     -0.984563     0.147450     0.034192
C      0.411091    -0.298466    -0.215631
O      1.260144     0.328067     0.665165
H     -1.265793     0.813891    -0.730868
H     -1.592976    -0.833415    -0.057043
H     -0.977023     0.673228     0.973093
H      0.884277    -0.135595    -1.178486
H      0.552732    -1.366792    -0.069672
H      1.911168     0.995642     0.301588
9
Iteration 1, Energy=-154.0498849117, |grad|=0.434461
C     -0.907177     0.109396    -0.030264
C      0.422755    -0.290689    -0.224048
O      1.327078     0.321367     0.724044
H     -1.455026     0.775521    -0.799889
H     -1.569169    -0.803659    -0.058550
H     -1.146154     0.599940     1.056394
H      0.769230    -0.224308    -1.314470
H      0.491926    -1.420117     0.022308
H      1.808143     1.132815     0.478475
9
Iteration -1, Energy=-154.0903112183, |grad|=0.028385
C     -0.936998     0.080477     0.033538
C      0.505199    -0.385116    -0.173092
O      1.436878     0.336981     0.591162
H     -1.204881     0.962319    -0.557755
H     -1.632356    -0.731394    -0.238744
H     -1.044038     0.324492     1.094628
H      0.797054    -0.403988    -1.231400
H      0.576608    -1.422476     0.172966
H      1.502534     1.238706     0.308697
9
Iteration 0, Energy=-154.0905907415, |grad|=0.020175
C     -0.934222     0.076178     0.031862
C      0.505060    -0.388859    -0.172513
O      1.437850     0.336613     0.592136
H     -1.202494     0.962304    -0.556787
H     -1.629592    -0.725071    -0.236261
H     -1.048505     0.322760     1.092820
H      0.794235    -0.401503    -1.230811
H      0.578680    -1.418270     0.173708
H      1.498988     1.235850     0.305846
9
Iteration 1, Energy=-154.0908830964, |grad|=0.017549
C     -0.927376     0.075035     0.031525
C      0.506781    -0.390305    -0.171623
O      1.438215     0.332867     0.593409
H     -1.196106     0.960633    -0.554200
H     -1.627447    -0.716564    -0.233095
H     -1.057712     0.318336     1.088002
H      0.788447    -0.396694    -1.229863
H      0.583863    -1.414888     0.176831
H      1.491335     1.231579     0.299015
9
Iteration 2, Energy=-154.0909805787, |grad|=0.041781
C     -0.920836     0.077737     0.032850
C      0.510573    -0.392110    -0.166651
O      1.440891     0.336634     0.591491
H     -1.181984     0.960845    -0.551652
H     -1.627305    -0.708199    -0.232303
H     -1.072858     0.311633     1.085420
H      0.779891    -0.388714    -1.231159
H      0.593719    -1.416603     0.182527
H      1.477909     1.218777     0.289476
9
Iteration 3, Energy=-154.0911844752, |grad|=0.014143
C     -0.920548     0.077842     0.034079
C      0.511537    -0.391843    -0.166144
O      1.441075     0.331564     0.592542
H     -1.178647     0.961957    -0.551693
H     -1.627644    -0.707387    -0.233247
H     -1.075620     0.310675     1.085979
H      0.778335    -0.387498    -1.230759
H      0.595921    -1.417904     0.183685
H      1.475591     1.222595     0.285558
9
Iteration 4, Energy=-154.0912634910, |grad|=0.012433
C     -0.921740     0.078339     0.035688
C      0.511888    -0.392594    -0.165232
O      1.442029     0.331011     0.592091
H     -1.174880     0.963979    -0.552183
H     -1.628603    -0.708062    -0.235572
H     -1.077732     0.310278     1.088214
H      0.777368    -0.386733    -1.230506
H      0.597938    -1.420437     0.184371
H      1.473732     1.224219     0.283128
9
Iteration 5, Energy=-154.0914065693, |grad|=0.015513
C     -0.923458     0.078620     0.039814
C      0.512223    -0.396460    -0.161709
O      1.445036     0.331812     0.589447
H     -1.161316     0.969311    -0.552136
H     -1.630546    -0.707170    -0.242409
H     -1.086398     0.308114     1.094058
H      0.772909    -0.383764    -1.228739
H      0.605197    -1.426507     0.186527
H      1.466353     1.226044     0.275146
9
Iteration 6, Energy=-154.0915468660, |grad|=0.014398
C     -0.924316     0.076779     0.044436
C      0.510948    -0.400415    -0.157288
O      1.446248     0.334879     0.583341
H     -1.144548     0.972960    -0.548088
H     -1.631762    -0.703328    -0.252296
H     -1.095421     0.305429     1.098788
H      0.767201    -0.383588    -1.223592
H      0.612647    -1.431475     0.187446
H      1.459003     1.228758     0.267253
9
Iteration 7, Energy=-154.0916481894, |grad|=0.026469
C     -0.920009     0.074581     0.050087
C      0.507621    -0.409149    -0.147598
O      1.450389     0.345563     0.577767
H     -1.113024     0.978002    -0.531410
H     -1.636234    -0.692957    -0.275873
H     -1.111055     0.295827     1.105681
H      0.753765    -0.392813    -1.220875
H      0.623972    -1.435871     0.191004
H      1.444575     1.236817     0.251215
9
Iteration 8, Energy=-154.0917957349, |grad|=0.009920
C     -0.921403     0.069403     0.054066
C      0.509894    -0.408320    -0.147061
O      1.448385     0.350667     0.571944
H     -1.101876     0.981217    -0.524435
H     -1.635620    -0.686034    -0.285003
H     -1.115378     0.291367     1.106375
H      0.748539    -0.398670    -1.216214
H      0.627246    -1.438046     0.193317
H      1.440215     1.238415     0.247011
9
Iteration 9, Energy=-154.0918501409, |grad|=0.009262
C     -0.920271     0.068819     0.053208
C      0.510976    -0.407771    -0.147207
O      1.446438     0.352218     0.570899
H     -1.102072     0.981583    -0.520187
H     -1.635204    -0.683304    -0.287473
H     -1.114208     0.288368     1.105197
H      0.747832    -0.403443    -1.216692
H      0.626164    -1.435876     0.195055
H      1.440344     1.239407     0.247199
9
Iteration 0, Energy=-153.9614211752, |grad|=1.010260
C     -0.960096    -0.014561     0.066714
C      0.564936    -0.231362    -0.156493
O      1.178332     0.270807     0.719042
H     -1.349865     0.768124    -0.825492
H     -1.649893    -0.773770    -0.039786
H     -1.088467     0.640586     1.109392
H      0.702631    -0.154797    -1.203892
H      0.680477    -1.512549     0.012676
H      1.788632     1.122636     0.443895
9
Iteration 1, Energy=-154.0359881713, |grad|=0.490451
C     -1.036409    -0.052021    -0.057462
C      0.560858    -0.410758    -0.223661
O      1.245462     0.260079     0.745672
H     -1.371949     0.677123    -0.763425
H     -1.542628    -0.908399     0.115388
H     -1.007127     0.523854     1.063765
H      0.820923    -0.142763    -1.234876
H      0.530928    -1.410003    -0.108000
H      1.861396     1.019793     0.458563
9
Iteration -1, Energy=-154.0918501409, |grad|=0.009262
C     -0.920271     0.068819     0.053208
C      0.510976    -0.407771    -0.147207
O      1.446438     0.352218     0.570899
H     -1.102072     0.981583    -0.520187
H     -1.635204    -0.683304    -0.287473
H     -1.114208     0.288368     1.105197
H      0.747832    -0.403443    -1.216692
H      0.626164    -1.435876     0.195055
H      1.440344     1.239407     0.247199
9
Iteration 0, Energy=-154.0918810495, |grad|=0.015560
C     -0.918567     0.071191     0.052141
C      0.510157    -0.407856    -0.147674
O      1.445500     0.349357     0.570507
H     -1.103827     0.984069    -0.519005
H     -1.635357    -0.683287    -0.288474
H     -1.113264     0.284768     1.105561
H      0.749122    -0.405192    -1.217829
H      0.626258    -1.434859     0.198553
H      1.439978     1.241807     0.246219
9
Iteration 1, Energy=-154.0919211983, |grad|=0.010826
C     -0.918492     0.071781     0.051537
C      0.509935    -0.408172    -0.148334
O      1.445276     0.350203     0.569638
H     -1.104851     0.985806    -0.518275
H     -1.634982    -0.682716    -0.289002
H     -1.112589     0.282567     1.105690
H      0.749848    -0.406398    -1.218308
H      0.626079    -1.434206     0.200634
H      1.439775     1.241135     0.246419
9
Iteration 2, Energy=-154.0920319232, |grad|=0.009093
C     -0.918719     0.074806     0.047890
C      0.509424    -0.408894    -0.152079
O      1.443957     0.352147     0.565240
H     -1.110878     0.996210    -0.513238
H     -1.632661    -0.678834    -0.292641
H     -1.108271     0.269024     1.106260
H      0.754218    -0.414363    -1.221081
H      0.624626    -1.430157     0.213332
H      1.438304     1.240062     0.246317
9
Iteration 3, Energy=-154.0920806655, |grad|=0.008747
C     -0.919325     0.075691     0.046384
C      0.509923    -0.408532    -0.153097
O      1.444516     0.352921     0.563406
H     -1.113270     1.000611    -0.508677
H     -1.632086    -0.676395    -0.296281
H     -1.105666     0.261861     1.105958
H      0.756361    -0.420101    -1.222049
H      0.622417    -1.427272     0.219096
H      1.437130     1.241216     0.245260
9
Iteration 4, Energy=-154.0921583044, |grad|=0.017685
C     -0.914414     0.077596     0.041100
C      0.509286    -0.405025    -0.156049
O      1.448201     0.359053     0.555060
H     -1.119984     1.015865    -0.487961
H     -1.633424    -0.668654    -0.315457
H     -1.097495     0.235897     1.107152
H      0.763921    -0.444245    -1.222871
H      0.611700    -1.417682     0.239000
H      1.432209     1.247194     0.240026
9
Iteration 5, Energy=-154.0922350195, |grad|=0.010940
C     -0.918038     0.076207     0.042134
C      0.513559    -0.407082    -0.154527
O      1.449572     0.361516     0.551060
H     -1.118147     1.018307    -0.478548
H     -1.632441    -0.664058    -0.324553
H     -1.096311     0.229127     1.106862
H      0.765100    -0.452748    -1.220683
H      0.606355    -1.414062     0.241844
H      1.430351     1.252793     0.236411
9
Iteration 6, Energy=-154.0922663356, |grad|=0.006830
C     -0.917541     0.075031     0.043329
C      0.512580    -0.406277    -0.153713
O      1.449906     0.361857     0.551526
H     -1.115543     1.016014    -0.479355
H     -1.632561    -0.664579    -0.324437
H     -1.098363     0.232295     1.107326
H      0.763884    -0.450865    -1.219779
H      0.607185    -1.416593     0.239154
H      1.430453     1.253118     0.235949
9
Iteration 7, Energy=-154.0923104615, |grad|=0.006235
C     -0.916334     0.074018     0.045256
C      0.511158    -0.406695    -0.151639
O      1.450541     0.364404     0.549498
H     -1.110113     1.015446    -0.475788
H     -1.632157    -0.663318    -0.329478
H     -1.102183     0.232130     1.109152
H      0.762640    -0.452170    -1.218230
H      0.607277    -1.419481     0.238336
H      1.429169     1.255666     0.232893
9
Iteration 8, Energy=-154.0923678414, |grad|=0.010294
C     -0.915403     0.072595     0.048022
C      0.510774    -0.407412    -0.150318
O      1.451214     0.369146     0.544002
H     -1.101820     1.020246    -0.465900
H     -1.630201    -0.658203    -0.341530
H     -1.107775     0.224375     1.112213
H      0.761261    -0.459264    -1.215524
H      0.606784    -1.421969     0.243283
H      1.425166     1.260486     0.225751
9
Iteration 9, Energy=-154.0924597503, |grad|=0.013489
C     -0.913397     0.072866     0.050953
C      0.509669    -0.411328    -0.144900
O      1.452171     0.378350     0.532823
H     -1.085382     1.031383    -0.445175
H     -1.625903    -0.647078    -0.365056
H     -1.119317     0.205199     1.117990
H      0.758153    -0.473697    -1.212869
H      0.608042    -1.423594     0.255609
H      1.415963     1.267900     0.210623
9
Iteration 0, Energy=-154.0171365795, |grad|=0.655677
C     -0.918670    -0.040396     0.031448
C      0.556574    -0.237064    -0.209317
O      1.348706     0.247091     0.650854
H     -1.384313     0.793061    -0.728409
H     -1.572692    -0.788931     0.111480
H     -1.057753     0.607992     0.927932
H      0.824126    -0.042812    -1.156371
H      0.497134    -1.457606    -0.035115
H      1.888941     1.054002     0.433089
9
Iteration 1, Energy=-154.0129353838, |grad|=0.654835
C     -0.875512    -0.002750     0.068644
C      0.439260    -0.240738    -0.271955
O      1.305435     0.244986     0.793392
H     -1.314062     0.784713    -0.813253
H     -1.521901    -0.838845    -0.038685
H     -1.099140     0.525506     1.106453
H      0.688912    -0.064669    -1.191400
H      0.527123    -1.358330     0.052362
H      1.751010     0.972599     0.449921
9
Iteration -1, Energy=-154.0924597503, |grad|=0.013489
C     -0.913397     0.072866     0.050953
C      0.509669    -0.411328    -0.144900
O      1.452171     0.378350     0.532823
H     -1.085382     1.031383    -0.445175
H     -1.625903    -0.647078    -0.365056
H     -1.119317     0.205199     1.117990
H      0.758153    -0.473697    -1.212869
H      0.608042    -1.423594     0.255609
H      1.415963     1.267900     0.210623
9
Iteration 0, Energy=-154.0925037900, |grad|=0.009435
C     -0.915657     0.072799     0.051966
C      0.512681    -0.412912    -0.145996
O      1.451785     0.377669     0.533431
H     -1.084949     1.032559    -0.445551
H     -1.625314    -0.645843    -0.364071
H     -1.119739     0.203810     1.116006
H      0.756559    -0.473174    -1.212080
H      0.609526    -1.421058     0.256369
H      1.415110     1.266148     0.209925
9
Iteration 1, Energy=-154.0925276977, |grad|=0.006908
C     -0.914980     0.073028     0.051302
C      0.512620    -0.412508    -0.145736
O      1.451825     0.376976     0.533958
H     -1.084601     1.033143    -0.445581
H     -1.625589    -0.645402    -0.363623
H     -1.120365     0.202790     1.115566
H      0.755655    -0.472854    -1.212410
H      0.611028    -1.420125     0.257285
H      1.414407     1.264951     0.209241
9
Iteration 2, Energy=-154.0925640834, |grad|=0.007281
C     -0.913041     0.074862     0.050078
C      0.511960    -0.412209    -0.145162
O      1.452155     0.376027     0.535506
H     -1.082440     1.035553    -0.445418
H     -1.626926    -0.643497    -0.362829
H     -1.123270     0.198168     1.113375
H      0.751904    -0.471231    -1.213602
H      0.617806    -1.417275     0.261641
H      1.411852     1.259600     0.206411
9
Iteration 3, Energy=-154.0925714182, |grad|=0.003656
C     -0.913242     0.074561     0.049681
C      0.512206    -0.412112    -0.144750
O      1.451967     0.374781     0.535728
H     -1.081811     1.036114    -0.445264
H     -1.626963    -0.642781    -0.362965
H     -1.123939     0.197426     1.113444
H      0.751273    -0.470951    -1.213706
H      0.618988    -1.417116     0.262443
H      1.411520     1.260077     0.205388
9
Iteration 4, Energy=-154.0925745344, |grad|=0.003090
C     -0.913526     0.074277     0.049786
C      0.512282    -0.412374    -0.144621
O      1.451854     0.375054     0.535395
H     -1.081553     1.036146    -0.445091
H     -1.626936    -0.642587    -0.363382
H     -1.124097     0.197470     1.113754
H      0.751322    -0.470968    -1.213552
H      0.618940    -1.417464     0.262434
H      1.411714     1.260445     0.205278
9
Iteration 5, Energy=-154.0925887316, |grad|=0.003389
C     -0.914421     0.073319     0.050899
C      0.512378    -0.413863    -0.143840
O      1.451273     0.376469     0.533724
H     -1.078882     1.036706    -0.443466
H     -1.627561    -0.640944    -0.366654
H     -1.126159     0.196358     1.115009
H      0.750582    -0.470897    -1.212537
H      0.620467    -1.419203     0.263552
H      1.412322     1.262054     0.203314
9
Iteration 6, Energy=-154.0926046141, |grad|=0.005838
C     -0.915310     0.071782     0.051680
C      0.512208    -0.415379    -0.141701
O      1.450930     0.378751     0.531976
H     -1.073675     1.037740    -0.439928
H     -1.628609    -0.637230    -0.371666
H     -1.130417     0.193029     1.116220
H      0.748287    -0.471262    -1.211439
H      0.624325    -1.420201     0.265949
H      1.412260     1.262771     0.198909
9
Iteration 7, Energy=-154.0926232139, |grad|=0.004747
C     -0.915458     0.070275     0.054426
C      0.512096    -0.416896    -0.139581
O      1.450371     0.381900     0.529833
H     -1.065544     1.039241    -0.433835
H     -1.630763    -0.632145    -0.380194
H     -1.137134     0.187444     1.117323
H      0.744738    -0.472701    -1.208960
H      0.629727    -1.421503     0.269552
H      1.411966     1.264385     0.191436
9
Iteration 8, Energy=-154.0926376777, |grad|=0.004295
C     -0.914911     0.069903     0.054953
C      0.512088    -0.417551    -0.137209
O      1.450115     0.384132     0.529146
H     -1.060021     1.040727    -0.428300
H     -1.631415    -0.628211    -0.385602
H     -1.142132     0.181989     1.117612
H      0.742186    -0.475002    -1.207961
H      0.633132    -1.420156     0.272090
H      1.410958     1.264169     0.185270
9
Iteration 9, Energy=-154.0926490341, |grad|=0.004803
C     -0.914108     0.068894     0.055766
C      0.511831    -0.416150    -0.136227
O      1.450032     0.386534     0.529006
H     -1.055324     1.043346    -0.422214
H     -1.630911    -0.624298    -0.390624
H     -1.146676     0.175734     1.117218
H      0.740290    -0.478660    -1.206735
H      0.635237    -1.418747     0.275026
H      1.409629     1.263347     0.178785
9
Iteration 0, Energy=-154.0242023495, |grad|=0.502661
C     -1.050326     0.082542     0.138662
C      0.580908    -0.310572    -0.145602
O      1.215605     0.369248     0.806014
H     -1.262285     0.772091    -0.702208
H     -1.572492    -0.939415    -0.029406
H     -1.026518     0.539857     1.102955
H      0.886137    -0.143363    -1.273178
H      0.620599    -1.430975     0.053997
H      1.893996     1.146961     0.376770
9
Iteration 1, Energy=-154.0330190368, |grad|=0.667117
C     -0.953210     0.106927     0.109091
C      0.544142    -0.349083    -0.181461
O      1.325008     0.280646     0.754921
H     -1.440556     0.646651    -0.769824
H     -1.578343    -0.946566     0.080454
H     -1.133803     0.536198     0.915584
H      0.759705    -0.177214    -1.150479
H      0.671490    -1.386086    -0.111799
H      1.795110     0.983681     0.399141
9
Iteration -1, Energy=-154.0926490341, |grad|=0.004803
C     -0.914108     0.068894     0.055766
C      0.511831    -0.416150    -0.136227
O      1.450032     0.386534     0.529006
H     -1.055324     1.043346    -0.422214
H     -1.630911    -0.624298    -0.390624
H     -1.146676     0.175734     1.117218
H      0.740290    -0.478660    -1.206735
H      0.635237    -1.418747     0.275026
H      1.409629     1.263347     0.178785
9
Iteration 0, Energy=-154.0926539501, |grad|=0.002996
C     -0.914275     0.069574     0.055827
C      0.512230    -0.416846    -0.136115
O      1.449744     0.386238     0.528847
H     -1.055659     1.043581    -0.421925
H     -1.630684    -0.624546    -0.390815
H     -1.146475     0.175416     1.117224
H      0.740621    -0.478814    -1.206744
H      0.634764    -1.418458     0.275104
H      1.409733     1.263856     0.178598
9
Iteration 1, Energy=-154.0926579281, |grad|=0.003264
C     -0.914325     0.069997     0.055773
C      0.512346    -0.417164    -0.136238
O      1.449513     0.386341     0.528541
H     -1.056207     1.044163    -0.421528
H     -1.630238    -0.624778    -0.391049
H     -1.146178     0.174934     1.117334
H      0.741168    -0.479153    -1.206727
H      0.634041    -1.418421     0.275423
H      1.409879     1.264081     0.178471
9
Iteration 2, Energy=-154.0926706762, |grad|=0.004969
C     -0.914324     0.071349     0.055190
C      0.512249    -0.417354    -0.136925
O      1.448840     0.386462     0.527430
H     -1.058975     1.047057    -0.419375
H     -1.627931    -0.625629    -0.392182
H     -1.144637     0.172431     1.117825
H      0.743934    -0.481148    -1.206756
H      0.630406    -1.418474     0.277256
H      1.410438     1.265307     0.177537
9
Iteration 3, Energy=-154.0926723878, |grad|=0.009503
C     -0.914348     0.072830     0.054475
C      0.511916    -0.417371    -0.137480
O      1.449085     0.388659     0.526169
H     -1.062221     1.049616    -0.416127
H     -1.625490    -0.626136    -0.393789
H     -1.142616     0.169076     1.117616
H      0.746932    -0.484053    -1.206794
H      0.625805    -1.417172     0.279184
H      1.410937     1.264552     0.176747
9
Iteration 4, Energy=-154.0926820401, |grad|=0.003201
C     -0.914187     0.072281     0.054392
C      0.511853    -0.416546    -0.137619
O      1.449153     0.387711     0.526533
H     -1.062096     1.049606    -0.416246
H     -1.625613    -0.625953    -0.393743
H     -1.142730     0.169171     1.117678
H      0.746752    -0.484049    -1.206702
H      0.626036    -1.417378     0.279289
H      1.410833     1.265156     0.176419
9
Iteration 5, Energy=-154.0926849434, |grad|=0.001721
C     -0.914023     0.072010     0.054182
C      0.511761    -0.415802    -0.137700
O      1.449475     0.387581     0.526681
H     -1.062462     1.049758    -0.415671
H     -1.625480    -0.625728    -0.394064
H     -1.142505     0.168616     1.117539
H      0.746945    -0.484616    -1.206621
H      0.625498    -1.416957     0.279628
H      1.410791     1.265137     0.176026
9
Iteration 6, Energy=-154.0926871625, |grad|=0.001763
C     -0.913821     0.071893     0.053888
C      0.511796    -0.415051    -0.137766
O      1.449926     0.387699     0.526709
H     -1.063204     1.050086    -0.414543
H     -1.625233    -0.625409    -0.394779
H     -1.142079     0.167471     1.117304
H      0.747360    -0.485631    -1.206470
H      0.624426    -1.416011     0.280252
H      1.410828     1.264954     0.175406
9
Iteration 7, Energy=-154.0926891152, |grad|=0.001477
C     -0.913694     0.071860     0.053713
C      0.512054    -0.414702    -0.137754
O      1.450266     0.387914     0.526531
H     -1.063813     1.050437    -0.413385
H     -1.625240    -0.624902    -0.395830
H     -1.141890     0.166071     1.117180
H      0.747560    -0.486549    -1.206246
H      0.623678    -1.414953     0.281107
H      1.411080     1.264825     0.174684
9
Iteration 8, Energy=-154.0926925294, |grad|=0.001846
C     -0.913830     0.071876     0.053518
C      0.512032    -0.414377    -0.137332
O      1.450932     0.388518     0.525965
H     -1.064369     1.051045    -0.411061
H     -1.625504    -0.623401    -0.398341
H     -1.142182     0.162939     1.117079
H      0.747609    -0.488086    -1.206091
H      0.623307    -1.413447     0.283302
H      1.412004     1.264934     0.172963
9
Iteration 9, Energy=-154.0926962085, |grad|=0.003541
C     -0.914313     0.071361     0.053844
C      0.512748    -0.414102    -0.137394
O      1.451521     0.390009     0.524375
H     -1.064743     1.052957    -0.406674
H     -1.626176    -0.620215    -0.403630
H     -1.143729     0.156672     1.117088
H      0.747047    -0.490834    -1.204832
H      0.623436    -1.411074     0.287870
H      1.414208     1.265227     0.169353
9
Iteration 0, Energy=-153.9998198328, |grad|=0.808258
C     -0.941338     0.061970     0.025571
C      0.458300    -0.251860    -0.123015
O      1.197223     0.262327     0.696215
H     -1.276309     0.782084    -0.777375
H     -1.575257    -0.853793     0.037299
H     -1.000312     0.501134     1.093894
H      0.773639    -0.083818    -1.276574
H      0.648263    -1.502113    -0.016769
H      1.752983     1.131945     0.306706
9
Iteration 1, Energy=-154.0056025596, |grad|=0.504959
C     -1.032272     0.112403     0.059571
C      0.578285    -0.419886    -0.270438
O      1.226795     0.246910     0.755145
H     -1.391795     0.824049    -0.666338
H     -1.616870    -0.910181     0.044014
H     -1.073102     0.688923     1.083809
H      0.802241    -0.140814    -1.239027
H      0.629115    -1.509889    -0.063103
H      1.906984     1.113088     0.324683
9
Iteration -1, Energy=-154.0926962085, |grad|=0.003541
C     -0.914313     0.071361     0.053844
C      0.512748    -0.414102    -0.137394
O      1.451521     0.390009     0.524375
H     -1.064743     1.052957    -0.406674
H     -1.626176    -0.620215    -0.403630
H     -1.143729     0.156672     1.117088
H      0.747047    -0.490834    -1.204832
H      0.623436    -1.411074     0.287870
H      1.414208     1.265227     0.169353
9
Iteration 0, Energy=-154.0926986178, |grad|=0.002845
C     -0.914075     0.071652     0.053361
C      0.512057    -0.414333    -0.136477
O      1.451291     0.389873     0.524253
H     -1.064423     1.053092    -0.406471
H     -1.625991    -0.620356    -0.403645
H     -1.144151     0.156653     1.117504
H      0.747225    -0.490788    -1.205378
H      0.623740    -1.411541     0.287785
H      1.414328     1.265749     0.169069
9
Iteration 1, Energy=-154.0926999991, |grad|=0.001685
C     -0.914211     0.071667     0.053580
C      0.512041    -0.414432    -0.136661
O      1.451181     0.390113     0.524181
H     -1.064234     1.053263    -0.406431
H     -1.625865    -0.620388    -0.403672
H     -1.144347     0.156644     1.117457
H      0.747197    -0.490770    -1.205260
H      0.623858    -1.411807     0.287795
H      1.414380     1.265710     0.169010
9
Iteration 2, Energy=-154.0927019455, |grad|=0.001340
C     -0.914515     0.071764     0.054003
C      0.511904    -0.414771    -0.136811
O      1.450736     0.390512     0.524004
H     -1.063513     1.053787    -0.406196
H     -1.625449    -0.620499    -0.403776
H     -1.145132     0.156610     1.117493
H      0.747112    -0.490714    -1.205050
H      0.624318    -1.412634     0.287740
H      1.414540     1.265943     0.168593
9
Iteration 3, Energy=-154.0927031744, |grad|=0.001515
C     -0.914593     0.071778     0.054190
C      0.511838    -0.415063    -0.136614
O      1.450331     0.390867     0.523882
H     -1.062699     1.054167    -0.405819
H     -1.625153    -0.620548    -0.403964
H     -1.146035     0.156565     1.117626
H      0.746916    -0.490696    -1.204875
H      0.624775    -1.413133     0.287543
H      1.414622     1.266063     0.168029
9
Iteration 4, Energy=-154.0927042100, |grad|=0.003881
C     -0.914621     0.071494     0.055088
C      0.511690    -0.415070    -0.136127
O      1.449628     0.391248     0.524194
H     -1.060103     1.054831    -0.404452
H     -1.624613    -0.620380    -0.404865
H     -1.148735     0.156274     1.117602
H      0.746029    -0.490756    -1.204189
H      0.626179    -1.414156     0.287055
H      1.414546     1.266515     0.165693
9
Iteration 5, Energy=-154.0927064291, |grad|=0.001236
C     -0.914556     0.071442     0.054959
C      0.511706    -0.415341    -0.135574
O      1.449527     0.391798     0.524103
H     -1.059480     1.054808    -0.404007
H     -1.624554    -0.620215    -0.405155
H     -1.149401     0.156146     1.117755
H      0.745765    -0.490744    -1.204147
H      0.626473    -1.414021     0.286844
H      1.414521     1.266128     0.165222
9
Iteration 6, Energy=-154.0927072311, |grad|=0.000963
C     -0.914468     0.071279     0.054946
C      0.511818    -0.415282    -0.135256
O      1.449627     0.391944     0.524216
H     -1.059093     1.054625    -0.403659
H     -1.624657    -0.619944    -0.405495
H     -1.149773     0.155963     1.117754
H      0.745488    -0.490738    -1.204040
H      0.626645    -1.413699     0.286807
H      1.414413     1.265851     0.164725
9
Iteration 7, Energy=-154.0927080904, |grad|=0.001052
C     -0.914392     0.071013     0.055132
C      0.511908    -0.415207    -0.134846
O      1.449709     0.392182     0.524348
H     -1.058340     1.054486    -0.403031
H     -1.624782    -0.619405    -0.406260
H     -1.150524     0.155485     1.117771
H      0.745024    -0.490643    -1.203782
H      0.627088    -1.413442     0.286994
H      1.414309     1.265531     0.163673
9
Iteration 8, Energy=-154.0927095627, |grad|=0.001352
C     -0.914523     0.070703     0.055426
C      0.512074    -0.415422    -0.134227
O      1.449695     0.392521     0.524236
H     -1.057409     1.054503    -0.401991
H     -1.624982    -0.618215    -0.407897
H     -1.151540     0.154154     1.117996
H      0.744421    -0.490323    -1.203325
H      0.627838    -1.413158     0.287987
H      1.414426     1.265238     0.161795
9
Iteration 9, Energy=-154.0927101064, |grad|=0.002989
C     -0.914237     0.069995     0.056200
C      0.511496    -0.415365    -0.133043
O      1.449614     0.393831     0.523820
H     -1.055380     1.055110    -0.399494
H     -1.625445    -0.615824    -0.411683
H     -1.153938     0.150899     1.118498
H      0.743362    -0.489984    -1.202409
H      0.629563    -1.413221     0.290468
H      1.414965     1.264558     0.157644
9
Iteration 0, Energy=-154.0300625552, |grad|=0.544427
C     -0.877627     0.072890     0.004399
C      0.551482    -0.382079    -0.225670
O      1.276156     0.280666     0.717330
H     -1.356421     0.771658    -0.760054
H     -1.515578    -0.954171     0.056755
H     -0.997322     0.684344     1.097989
H      0.845259    -0.065360    -1.256800
H      0.552004    -1.328540    -0.133418
H      1.840552     1.026931     0.423990
9
Iteration 1, Energy=-154.0380264660, |grad|=0.530522
C     -0.999773     0.094282     0.088233
C      0.488977    -0.365372    -0.089862
O      1.258135     0.306712     0.713924
H     -1.278799     0.641261    -0.711046
H     -1.631321    -0.766365    -0.048011
H     -1.109162     0.599598     0.927221
H      0.696585    -0.078459    -1.218308
H      0.605440    -1.523878    -0.108570
H      1.775137     1.107349     0.372223
9
Iteration -1, Energy=-154.0927101064, |grad|=0.002989
C     -0.914237     0.069995     0.056200
C      0.511496    -0.415365    -0.133043
O      1.449614     0.393831     0.523820
H     -1.055380     1.055110    -0.399494
H     -1.625445    -0.615824    -0.411683
H     -1.153938     0.150899     1.118498
H      0.743362    -0.489984    -1.202409
H      0.629563    -1.413221     0.290468
H      1.414965     1.264558     0.157644
9
Iteration 0, Energy=-154.0927115107, |grad|=0.001692
C     -0.914875     0.070223     0.056241
C      0.512035    -0.415810    -0.133188
O      1.449401     0.393571     0.523820
H     -1.055439     1.055238    -0.399351
H     -1.625211    -0.615798    -0.411597
H     -1.153865     0.150750     1.118366
H      0.743422    -0.490145    -1.202264
H      0.629419    -1.413036     0.290419
H      1.415113     1.265007     0.157554
9
Iteration 1, Energy=-154.0927119726, |grad|=0.001025
C     -0.914808     0.070223     0.056194
C      0.511918    -0.415761    -0.133218
O      1.449379     0.393756     0.523747
H     -1.055496     1.055358    -0.399289
H     -1.625192    -0.615840    -0.411599
H     -1.153861     0.150677     1.118382
H      0.743497    -0.490262    -1.202284
H      0.629370    -1.413093     0.290451
H      1.415193     1.264943     0.157617
9
Iteration 2, Energy=-154.0927126275, |grad|=0.001072
C     -0.914762     0.070293     0.056078
C      0.511742    -0.415684    -0.133310
O      1.449264     0.393990     0.523616
H     -1.055675     1.055704    -0.399066
H     -1.625101    -0.615955    -0.411599
H     -1.153825     0.150425     1.118382
H      0.743724    -0.490642    -1.202317
H      0.629195    -1.413180     0.290536
H      1.415438     1.265049     0.157681
9
Iteration 3, Energy=-154.0927134781, |grad|=0.001313
C     -0.914777     0.070491     0.055875
C      0.511549    -0.415597    -0.133478
O      1.449038     0.394262     0.523433
H     -1.056050     1.056336    -0.398560
H     -1.624916    -0.616155    -0.411630
H     -1.153726     0.149885     1.118325
H      0.744169    -0.491430    -1.202369
H      0.628795    -1.413198     0.290694
H      1.415916     1.265406     0.157709
9
Iteration 4, Energy=-154.0927144604, |grad|=0.001213
C     -0.914894     0.070645     0.055610
C      0.511558    -0.415345    -0.133742
O      1.448945     0.394560     0.523321
H     -1.056679     1.057000    -0.397648
H     -1.624727    -0.616214    -0.411872
H     -1.153505     0.148986     1.118145
H      0.744739    -0.492613    -1.202384
H      0.628058    -1.412746     0.291015
H      1.416506     1.265728     0.157554
9
Iteration 5, Energy=-154.0927147753, |grad|=0.001297
C     -0.914715     0.070781     0.055486
C      0.511466    -0.415226    -0.133664
O      1.448956     0.394514     0.523249
H     -1.057034     1.057203    -0.397190
H     -1.624760    -0.616185    -0.412210
H     -1.153410     0.148474     1.118148
H      0.745011    -0.493027    -1.202457
H      0.627737    -1.412450     0.291325
H      1.416750     1.265915     0.157313
9
Iteration 0, Energy=-154.0475325905, |grad|=0.383100
C     -0.891762     0.094534     0.073264
C      0.474582    -0.229760    -0.222405
O      1.292495     0.361794     0.742083
H     -1.339418     0.752432    -0.671746
H     -1.667938    -0.811252    -0.028088
H     -1.038902     0.661550     0.987254
H      0.698918    -0.232673    -1.229382
H      0.657138    -1.433400    -0.099879
H      1.873425     1.016031     0.421945
9
Iteration 1, Energy=-154.0642230865, |grad|=0.272994
C     -0.967643     0.070108     0.122103
C      0.510700    -0.394954    -0.173687
O      1.315879     0.336153     0.678011
H     -1.326157     0.637772    -0.727910
H     -1.627292    -0.809264     0.003404
H     -0.974563     0.506721     1.066690
H      0.799894    -0.177465    -1.163616
H      0.543153    -1.458322     0.014252
H      1.837226     1.119188     0.418551
9
Iteration -1, Energy=-154.0927147753, |grad|=0.001297
C     -0.914715     0.070781     0.055486
C      0.511466    -0.415226    -0.133664
O      1.448956     0.394514     0.523249
H     -1.057034     1.057203    -0.397190
H     -1.624760    -0.616185    -0.412210
H     -1.153410     0.148474     1.118148
H      0.745011    -0.493027    -1.202457
H      0.627737    -1.412450     0.291325
H      1.416750     1.265915     0.157313
9
Iteration 0, Energy=-154.0927150567, |grad|=0.000529
C     -0.914904     0.070736     0.055534
C      0.511626    -0.415270    -0.133756
O      1.448981     0.394504     0.523262
H     -1.057042     1.057187    -0.397165
H     -1.624706    -0.616093    -0.412234
H     -1.153389     0.148434     1.118103
H      0.744981    -0.493013    -1.202379
H      0.627708    -1.412377     0.291369
H      1.416744     1.265891     0.157266
9
Iteration 0, Energy=-154.0372492499, |grad|=0.592759
C     -0.942315     0.139132    -0.017115
C      0.528922    -0.402914    -0.186671
O      1.313134     0.413486     0.754287
H     -1.314270     0.638776    -0.807617
H     -1.664576    -0.846383    -0.055848
H     -1.015162     0.568182     0.964755
H      0.803031    -0.193239    -1.237762
H      0.494501    -1.359173    -0.003155
H      1.742765     1.126701     0.455740
9
Iteration 1, Energy=-154.0367912591, |grad|=0.522528
C     -0.990847     0.045228    -0.056651
C      0.587588    -0.411305    -0.113665
O      1.353078     0.293399     0.754566
H     -1.374809     0.770554    -0.679429
H     -1.556597    -0.950561     0.105556
H     -1.117590     0.535068     1.095762
H      0.849012    -0.112671    -1.213562
H      0.646968    -1.405506    -0.009404
H      1.891225     0.969020     0.419780
9
Iteration -1, Energy=-154.0927150567, |grad|=0.000529
C     -0.914904     0.070736     0.055534
C      0.511626    -0.415270    -0.133756
O      1.448981     0.394504     0.523262
H     -1.057042     1.057187    -0.397165
H     -1.624706    -0.616093    -0.412234
H     -1.153389     0.148434     1.118103
H      0.744981    -0.493013    -1.202379
H      0.627708    -1.412377     0.291369
H      1.416744     1.265891     0.157266
9
Iteration 0, Energy=-154.0927152493, |grad|=0.000846
C     -0.915091     0.070638     0.055570
C      0.511831    -0.415263    -0.133782
O      1.449145     0.394501     0.523264
H     -1.057131     1.057087    -0.396994
H     -1.624684    -0.615817    -0.412503
H     -1.153359     0.148201     1.118079
H      0.744937    -0.492965    -1.202280
H      0.627622    -1.412114     0.291619
H      1.416729     1.265730     0.157026
9
Iteration 0, Energy=-154.0277784867, |grad|=0.381790
C     -0.960155    -0.012995    -0.011621
C      0.585201    -0.399687    -0.144704
O      1.367800     0.278321     0.825158
H     -1.262710     0.764889    -0.832931
H     -1.576866    -0.949090    -0.014673
H     -1.124360     0.689851     1.103624
H      0.869629    -0.058918    -1.205267
H      0.609600    -1.513832    -0.010709
H      1.928392     1.110983     0.397381
9
Iteration 1, Energy=-154.0218928369, |grad|=0.489253
C     -0.947811     0.134059     0.130135
C      0.430610    -0.312436    -0.179305
O      1.213006     0.354210     0.820717
H     -1.432901     0.700374    -0.832553
H     -1.636479    -0.767587    -0.027630
H     -1.009573     0.586588     1.087475
H      0.885955    -0.103164    -1.248381
H      0.562794    -1.470684     0.013031
H      1.882218     1.121659     0.323442
9
Iteration -1, Energy=-154.0927152493, |grad|=0.000846
C     -0.915091     0.070638     0.055570
C      0.511831    -0.415263    -0.133782
O      1.449145     0.394501     0.523264
H     -1.057131     1.057087    -0.396994
H     -1.624684    -0.615817    -0.412503
H     -1.153359     0.148201     1.118079
H      0.744937    -0.492965    -1.202280
H      0.627622    -1.412114     0.291619
H      1.416729     1.265730     0.157026
9
Iteration 0, Energy=-154.0927153849, |grad|=0.000381
C     -0.914903     0.070665     0.055556
C      0.511696    -0.415196    -0.133694
O      1.449158     0.394489     0.523244
H     -1.057158     1.057104    -0.396955
H     -1.624746    -0.615838    -0.412598
H     -1.153384     0.148138     1.118121
H      0.744963    -0.492970    -1.202325
H      0.627630    -1.412129     0.291682
H      1.416745     1.265738     0.156969
9
Iteration 0, Energy=-154.0234201769, |grad|=0.637373
C     -0.955411     0.000979    -0.021959
C      0.452074    -0.296205    -0.105450
O      1.338584     0.239503     0.668585
H     -1.424860     0.659420    -0.762122
H     -1.520108    -0.770820     0.109064
H     -1.069224     0.670773     0.993869
H      0.822113    -0.139666    -1.255244
H      0.635751    -1.478472    -0.008593
H      1.876752     1.006888     0.335099
9
Iteration 1, Energy=-154.0331429886, |grad|=0.561329
C     -0.948278    -0.043701     0.104651
C      0.529407    -0.256153    -0.116747
O      1.215187     0.309547     0.815219
H     -1.347305     0.739862    -0.639898
H     -1.499258    -0.913869     0.080613
H     -1.063748     0.577114     0.951771
H      0.806268    -0.074884    -1.147800
H      0.661135    -1.452970    -0.040489
H      1.840038     1.084207     0.355833
