9
Iteration -1, Energy=-154.0855821065, |grad|=0.023006
C     -0.983669     0.057162     0.024265
C      0.488936    -0.324526    -0.179249
O      1.335264     0.308956     0.754771
H     -1.357455     0.737536    -0.739569
H     -1.614988    -0.830446     0.034757
H     -1.074031     0.541727     0.990975
H      0.795977    -0.125698    -1.207588
H      0.613361    -1.390190    -0.026654
H      1.796605     1.025478     0.348292
9
Iteration 1, Energy=-154.0856645606, |grad|=0.026335
C     -0.976602     0.054612     0.024947
C      0.485653    -0.322588    -0.175119
O      1.336514     0.309912     0.748679
H     -1.357794     0.740081    -0.741109
H     -1.618245    -0.831236     0.031960
H     -1.076705     0.543596     0.996033
H      0.799471    -0.123285    -1.208539
H      0.613781    -1.397023    -0.024695
H      1.793927     1.025933     0.347844
9
Iteration 2, Energy=-154.0857635419, |grad|=0.011855
C     -0.979006     0.055867     0.025744
C      0.487756    -0.324834    -0.176800
O      1.336241     0.308881     0.749402
H     -1.356972     0.739677    -0.740277
H     -1.618134    -0.830654     0.031257
H     -1.077114     0.543192     0.995889
H      0.799547    -0.123165    -1.207366
H      0.613625    -1.396586    -0.024379
H      1.794057     1.027623     0.346532
9
Iteration 3, Energy=-154.0858310658, |grad|=0.009003
C     -0.980333     0.056702     0.027134
C      0.489355    -0.327803    -0.177789
O      1.337461     0.308555     0.748055
H     -1.355462     0.740000    -0.739190
H     -1.619144    -0.829620     0.028852
H     -1.078872     0.543015     0.997500
H      0.801078    -0.122222    -1.205885
H      0.613559    -1.398454    -0.023127
H      1.792358     1.029828     0.344450
9
Iteration 4, Energy=-154.0859272463, |grad|=0.013268
C     -0.981060     0.057269     0.029949
C      0.491078    -0.332358    -0.177759
O      1.340951     0.307299     0.744408
H     -1.351703     0.741607    -0.736695
H     -1.622142    -0.826999     0.022756
H     -1.083254     0.542302     1.001669
H      0.805021    -0.120473    -1.203322
H      0.613686    -1.403858    -0.020017
H      1.787423     1.035210     0.339011
9
Iteration 5, Energy=-154.0860386991, |grad|=0.019901
C     -0.981243     0.057879     0.033423
C      0.492732    -0.338127    -0.176083
O      1.350237     0.307414     0.739351
H     -1.344254     0.745311    -0.731519
H     -1.626998    -0.822250     0.012955
H     -1.089572     0.538512     1.006263
H      0.809349    -0.121022    -1.199336
H      0.613959    -1.409038    -0.015797
H      1.775790     1.041321     0.330742
9
Iteration 6, Energy=-154.0861987125, |grad|=0.017189
C     -0.978636     0.057129     0.037595
C      0.494648    -0.342873    -0.171002
O      1.361764     0.303141     0.732745
H     -1.332805     0.752722    -0.724185
H     -1.634587    -0.815367    -0.001820
H     -1.098729     0.532016     1.013571
H      0.814750    -0.123797    -1.194113
H      0.614711    -1.416583    -0.009255
H      1.758883     1.053611     0.316465
9
Iteration 7, Energy=-154.0864136462, |grad|=0.015257
C     -0.974469     0.055945     0.040129
C      0.497129    -0.346016    -0.163800
O      1.375982     0.300034     0.725165
H     -1.318104     0.764688    -0.715496
H     -1.641531    -0.807794    -0.018089
H     -1.106925     0.520915     1.020377
H      0.816048    -0.133190    -1.188979
H      0.615746    -1.420029    -0.002007
H      1.736124     1.065448     0.302700
9
Iteration 8, Energy=-154.0868148669, |grad|=0.028409
C     -0.964974     0.058441     0.043806
C      0.498008    -0.352909    -0.152110
O      1.401341     0.295890     0.710527
H     -1.285394     0.794594    -0.696761
H     -1.649922    -0.794428    -0.051500
H     -1.118531     0.492434     1.032997
H      0.811491    -0.161521    -1.184123
H      0.618834    -1.424680     0.016403
H      1.689146     1.092179     0.280762
9
Iteration 9, Energy=-154.0873803602, |grad|=0.044790
C     -0.956226     0.057732     0.043425
C      0.503038    -0.358499    -0.138671
O      1.424753     0.296474     0.686712
H     -1.243016     0.838752    -0.672682
H     -1.650998    -0.775436    -0.092781
H     -1.126759     0.452892     1.050204
H      0.796867    -0.207507    -1.183639
H      0.622152    -1.427204     0.043469
H      1.630190     1.122797     0.263961
9
Iteration 10, Energy=-154.0883721471, |grad|=0.047570
C     -0.941548     0.066742     0.043317
C      0.504144    -0.367590    -0.132720
O      1.437757     0.306551     0.658650
H     -1.198386     0.888510    -0.644247
H     -1.645508    -0.759896    -0.137369
H     -1.127374     0.405862     1.065468
H      0.773120    -0.266380    -1.191198
H      0.625330    -1.427434     0.078646
H      1.572466     1.153634     0.259453
9
Iteration 1, Energy=-154.0883819316, |grad|=0.047601
C     -0.941548     0.066742     0.043306
C      0.504135    -0.367583    -0.132722
O      1.437638     0.306560     0.658489
H     -1.197986     0.888507    -0.643958
H     -1.645507    -0.759825    -0.137827
H     -1.127368     0.405552     1.065586
H      0.773116    -0.266384    -1.191199
H      0.625329    -1.427415     0.078919
H      1.572015     1.153968     0.259456
9
Iteration 2, Energy=-154.0883769728, |grad|=0.047420
C     -0.941642     0.066699     0.043288
C      0.504150    -0.367502    -0.132781
O      1.437702     0.306530     0.658645
H     -1.198346     0.888237    -0.644205
H     -1.645489    -0.759896    -0.137460
H     -1.127322     0.405899     1.065502
H      0.773211    -0.266100    -1.191190
H      0.625305    -1.427428     0.078647
H      1.572424     1.153696     0.259557
9
Iteration -1, Energy=-154.0883769728, |grad|=0.047420
C     -0.941642     0.066699     0.043288
C      0.504150    -0.367502    -0.132781
O      1.437702     0.306530     0.658645
H     -1.198346     0.888237    -0.644205
H     -1.645489    -0.759896    -0.137460
H     -1.127322     0.405899     1.065502
H      0.773211    -0.266100    -1.191190
H      0.625305    -1.427428     0.078647
H      1.572424     1.153696     0.259557
9
Iteration 1, Energy=-154.0888777524, |grad|=0.029119
C     -0.948587     0.070055     0.045180
C      0.507098    -0.376368    -0.142630
O      1.434912     0.312032     0.656895
H     -1.198157     0.885662    -0.640056
H     -1.641199    -0.757017    -0.140104
H     -1.125566     0.405985     1.065578
H      0.773409    -0.266448    -1.191618
H      0.623887    -1.428508     0.083303
H      1.574195     1.154743     0.263456
9
Iteration 2, Energy=-154.0891269435, |grad|=0.022625
C     -0.948928     0.069989     0.045739
C      0.506235    -0.378372    -0.146270
O      1.430486     0.311810     0.655398
H     -1.198838     0.885105    -0.637122
H     -1.638793    -0.755203    -0.143116
H     -1.123797     0.406424     1.067139
H      0.774471    -0.267276    -1.195468
H      0.622961    -1.431707     0.088277
H      1.576197     1.159366     0.265424
9
Iteration 3, Energy=-154.0894752177, |grad|=0.021158
C     -0.943948     0.068404     0.047789
C      0.500801    -0.384239    -0.154694
O      1.416945     0.318778     0.646468
H     -1.202386     0.886345    -0.627604
H     -1.633445    -0.751229    -0.155269
H     -1.116103     0.406832     1.072897
H      0.778141    -0.272555    -1.211267
H      0.618895    -1.440570     0.105566
H      1.581093     1.168369     0.276117
9
Iteration 4, Energy=-154.0896336382, |grad|=0.022683
C     -0.942824     0.068013     0.047560
C      0.504210    -0.383671    -0.157892
O      1.413631     0.316085     0.646973
H     -1.203721     0.890506    -0.623356
H     -1.634640    -0.751709    -0.161517
H     -1.109671     0.403076     1.073652
H      0.776508    -0.280912    -1.213924
H      0.616106    -1.436416     0.111236
H      1.580395     1.175164     0.277271
9
Iteration 5, Energy=-154.0897588764, |grad|=0.019601
C     -0.942342     0.067279     0.045723
C      0.505006    -0.382150    -0.157986
O      1.414442     0.317104     0.647022
H     -1.204199     0.893637    -0.620893
H     -1.635746    -0.751893    -0.164768
H     -1.105554     0.399811     1.073982
H      0.775362    -0.286850    -1.214976
H      0.614622    -1.432955     0.113595
H      1.578402     1.176154     0.278305
9
Iteration 6, Energy=-154.0901528592, |grad|=0.017754
C     -0.941475     0.069058     0.038973
C      0.501989    -0.377478    -0.159594
O      1.417529     0.324451     0.641899
H     -1.206248     0.913063    -0.602258
H     -1.637623    -0.748575    -0.187361
H     -1.079507     0.374045     1.073012
H      0.773029    -0.323728    -1.224126
H      0.606397    -1.418837     0.134024
H      1.565903     1.188137     0.285434
9
Iteration 7, Energy=-154.0902164709, |grad|=0.034300
C     -0.939602     0.065259     0.026762
C      0.504032    -0.377223    -0.165671
O      1.416880     0.330336     0.629931
H     -1.206709     0.931715    -0.588188
H     -1.634745    -0.739360    -0.203947
H     -1.066394     0.354061     1.082739
H      0.772879    -0.349527    -1.224169
H      0.599924    -1.414277     0.153000
H      1.553728     1.199152     0.289546
9
Iteration 8, Energy=-154.0904083462, |grad|=0.015467
C     -0.939131     0.069386     0.031119
C      0.502721    -0.379794    -0.164213
O      1.417723     0.330334     0.629294
H     -1.205722     0.930613    -0.588627
H     -1.635080    -0.739842    -0.203541
H     -1.068666     0.353186     1.079971
H      0.774403    -0.347380    -1.224382
H      0.600644    -1.415621     0.152142
H      1.553102     1.199253     0.288241
9
Iteration 9, Energy=-154.0905681810, |grad|=0.012431
C     -0.937872     0.073685     0.033129
C      0.501698    -0.383041    -0.163571
O      1.420097     0.331644     0.623247
H     -1.203225     0.936921    -0.584057
H     -1.634133    -0.735729    -0.208952
H     -1.069116     0.343253     1.079909
H      0.777238    -0.353642    -1.223607
H      0.599612    -1.417031     0.157933
H      1.545696     1.204075     0.285972
9
Iteration 10, Energy=-154.0908255656, |grad|=0.020395
C     -0.934258     0.080630     0.033531
C      0.501420    -0.388934    -0.162710
O      1.426843     0.335252     0.607806
H     -1.196046     0.955264    -0.570240
H     -1.631958    -0.723872    -0.224938
H     -1.069529     0.317377     1.083820
H      0.783126    -0.373200    -1.221681
H      0.595933    -1.419151     0.174526
H      1.524464     1.216770     0.279889
9
Iteration 1, Energy=-154.0908704465, |grad|=0.020704
C     -0.933873     0.080648     0.033704
C      0.501361    -0.389623    -0.162582
O      1.427606     0.335401     0.605425
H     -1.194893     0.958348    -0.567950
H     -1.631958    -0.722034    -0.227901
H     -1.070685     0.313834     1.084314
H      0.783134    -0.375599    -1.221166
H      0.596174    -1.419327     0.177160
H      1.520416     1.219185     0.279206
9
Iteration 2, Energy=-154.0908928410, |grad|=0.020227
C     -0.933582     0.079447     0.033608
C      0.501258    -0.390228    -0.162545
O      1.427994     0.335534     0.603936
H     -1.194700     0.959767    -0.566826
H     -1.632251    -0.721009    -0.229177
H     -1.071073     0.311498     1.084316
H      0.782182    -0.376697    -1.220966
H      0.596254    -1.419286     0.178427
H      1.518544     1.220180     0.279071
9
Iteration -1, Energy=-154.0908928410, |grad|=0.020227
C     -0.933582     0.079447     0.033608
C      0.501258    -0.390228    -0.162545
O      1.427994     0.335534     0.603936
H     -1.194700     0.959767    -0.566826
H     -1.632251    -0.721009    -0.229177
H     -1.071073     0.311498     1.084316
H      0.782182    -0.376697    -1.220966
H      0.596254    -1.419286     0.178427
H      1.518544     1.220180     0.279071
9
Iteration 1, Energy=-154.0909882552, |grad|=0.017694
C     -0.934013     0.075807     0.029599
C      0.504032    -0.387283    -0.162934
O      1.429588     0.337157     0.604283
H     -1.191310     0.958714    -0.564108
H     -1.632172    -0.719105    -0.230772
H     -1.074220     0.313575     1.089100
H      0.781150    -0.377276    -1.221821
H      0.596037    -1.420335     0.179037
H      1.515533     1.217953     0.277461
9
Iteration 2, Energy=-154.0910528352, |grad|=0.012138
C     -0.933215     0.075772     0.031602
C      0.505102    -0.387860    -0.162577
O      1.430118     0.336732     0.604682
H     -1.189380     0.958537    -0.562961
H     -1.632905    -0.719107    -0.232408
H     -1.075905     0.313983     1.089075
H      0.780855    -0.377454    -1.222514
H      0.596049    -1.419820     0.179024
H      1.513908     1.218422     0.275921
9
Iteration 3, Energy=-154.0912024292, |grad|=0.011603
C     -0.930029     0.073840     0.039021
C      0.509030    -0.390125    -0.160748
O      1.433581     0.337839     0.604948
H     -1.178687     0.957855    -0.556559
H     -1.635188    -0.717417    -0.240509
H     -1.084964     0.316020     1.090580
H      0.779153    -0.378358    -1.225203
H      0.596727    -1.418654     0.179352
H      1.505004     1.218207     0.268962
9
Iteration 4, Energy=-154.0912871620, |grad|=0.016481
C     -0.928769     0.072180     0.042122
C      0.509700    -0.391211    -0.158844
O      1.435283     0.337020     0.602785
H     -1.169222     0.958329    -0.551212
H     -1.634768    -0.714156    -0.246463
H     -1.092120     0.316032     1.092522
H      0.777373    -0.379016    -1.224618
H      0.599117    -1.420384     0.180519
H      1.498032     1.220413     0.263034
9
Iteration 5, Energy=-154.0914429904, |grad|=0.014346
C     -0.926404     0.070287     0.048296
C      0.509557    -0.395867    -0.154647
O      1.438731     0.340077     0.595263
H     -1.149749     0.961050    -0.540863
H     -1.633292    -0.707259    -0.258654
H     -1.106217     0.314021     1.096005
H      0.773133    -0.380483    -1.221546
H      0.605061    -1.424720     0.183200
H      1.483807     1.222101     0.252791
9
Iteration 6, Energy=-154.0916255957, |grad|=0.022358
C     -0.923157     0.068328     0.054041
C      0.513054    -0.403166    -0.146121
O      1.442478     0.345019     0.581959
H     -1.120031     0.978215    -0.529146
H     -1.632287    -0.695772    -0.279080
H     -1.124386     0.300006     1.103564
H      0.760029    -0.388163    -1.213586
H      0.617811    -1.434481     0.191698
H      1.461115     1.229220     0.236517
9
Iteration 7, Energy=-154.0917691088, |grad|=0.017013
C     -0.922093     0.074257     0.052725
C      0.508759    -0.410463    -0.139860
O      1.446779     0.352234     0.573454
H     -1.099789     0.987478    -0.517474
H     -1.630862    -0.686008    -0.293513
H     -1.133006     0.284238     1.106836
H      0.750262    -0.397054    -1.209442
H      0.628031    -1.439894     0.200170
H      1.446544     1.234420     0.226951
9
Iteration 8, Energy=-154.0918623426, |grad|=0.011220
C     -0.922921     0.073834     0.052337
C      0.508127    -0.409604    -0.140336
O      1.446024     0.354909     0.571858
H     -1.100027     0.991796    -0.517036
H     -1.630383    -0.682949    -0.295100
H     -1.129754     0.277578     1.105140
H      0.748045    -0.401689    -1.208953
H      0.629019    -1.439314     0.203835
H      1.446498     1.234645     0.228101
9
Iteration 9, Energy=-154.0919576116, |grad|=0.013678
C     -0.922096     0.073626     0.051115
C      0.508391    -0.409546    -0.139888
O      1.445323     0.358069     0.568875
H     -1.096810     0.998300    -0.512783
H     -1.630791    -0.677223    -0.301298
H     -1.127301     0.266531     1.104913
H      0.743801    -0.410475    -1.209043
H      0.630780    -1.437106     0.210761
H      1.443329     1.237028     0.227193
9
Iteration 10, Energy=-154.0921648009, |grad|=0.017466
C     -0.917971     0.073282     0.050152
C      0.509372    -0.411164    -0.140141
O      1.444707     0.366207     0.558589
H     -1.082441     1.013830    -0.494758
H     -1.632625    -0.660508    -0.324320
H     -1.125559     0.238059     1.107224
H      0.733966    -0.435227    -1.209391
H      0.634964    -1.430927     0.231505
H      1.430214     1.245655     0.220985
9
Iteration 1, Energy=-154.0921778991, |grad|=0.019562
C     -0.917792     0.073230     0.049849
C      0.509225    -0.411446    -0.140195
O      1.444672     0.367080     0.556899
H     -1.081268     1.016746    -0.492731
H     -1.632717    -0.659080    -0.327577
H     -1.125254     0.233975     1.107283
H      0.733790    -0.438809    -1.209413
H      0.634965    -1.430923     0.234538
H      1.428804     1.246688     0.220805
9
Iteration 2, Energy=-154.0921901627, |grad|=0.021276
C     -0.917527     0.073212     0.049686
C      0.509244    -0.411496    -0.140317
O      1.444599     0.367687     0.556015
H     -1.080577     1.018317    -0.491292
H     -1.632741    -0.657619    -0.329592
H     -1.125025     0.231025     1.107372
H      0.734855    -0.441238    -1.209429
H      0.633935    -1.431610     0.236623
H      1.427956     1.247473     0.220930
9
Iteration -1, Energy=-154.0921648009, |grad|=0.017466
C     -0.917971     0.073282     0.050152
C      0.509372    -0.411164    -0.140141
O      1.444707     0.366207     0.558589
H     -1.082441     1.013830    -0.494758
H     -1.632625    -0.660508    -0.324320
H     -1.125559     0.238059     1.107224
H      0.733966    -0.435227    -1.209391
H      0.634964    -1.430927     0.231505
H      1.430214     1.245655     0.220985
9
Iteration 1, Energy=-154.0922106499, |grad|=0.017858
C     -0.917373     0.075172     0.049470
C      0.509353    -0.412881    -0.139032
O      1.444493     0.362701     0.558582
H     -1.082759     1.011518    -0.491485
H     -1.633360    -0.661052    -0.326363
H     -1.125752     0.238821     1.108503
H      0.736725    -0.435864    -1.211553
H      0.633148    -1.428846     0.232169
H      1.430152     1.249638     0.219555
9
Iteration 2, Energy=-154.0922509960, |grad|=0.009585
C     -0.917528     0.074328     0.049989
C      0.509222    -0.412631    -0.139950
O      1.444726     0.364299     0.557857
H     -1.082950     1.011602    -0.490803
H     -1.633259    -0.660793    -0.326929
H     -1.125758     0.239038     1.108610
H      0.737575    -0.436227    -1.211649
H      0.632452    -1.428871     0.232701
H      1.430147     1.248461     0.220019
9
Iteration 3, Energy=-154.0922981694, |grad|=0.007447
C     -0.917788     0.072712     0.051042
C      0.509175    -0.412241    -0.141836
O      1.445099     0.365858     0.556172
H     -1.083648     1.011160    -0.487713
H     -1.633240    -0.660254    -0.329221
H     -1.125794     0.239746     1.109363
H      0.740895    -0.437560    -1.212642
H      0.629893    -1.428176     0.234463
H      1.430035     1.247961     0.220217
9
Iteration 4, Energy=-154.0923371646, |grad|=0.007711
C     -0.918076     0.070883     0.052102
C      0.509505    -0.411785    -0.143899
O      1.445483     0.366407     0.553924
H     -1.084898     1.010836    -0.482862
H     -1.633301    -0.659538    -0.332730
H     -1.125703     0.240239     1.110508
H      0.745866    -0.439841    -1.214073
H      0.626021    -1.426853     0.237108
H      1.429728     1.248858     0.219769
9
Iteration 5, Energy=-154.0923773597, |grad|=0.008930
C     -0.917782     0.071191     0.051341
C      0.510189    -0.412347    -0.144621
O      1.446533     0.367558     0.550592
H     -1.087598     1.013168    -0.476074
H     -1.633467    -0.658743    -0.337346
H     -1.124696     0.237129     1.111405
H      0.751631    -0.444500    -1.214531
H      0.621128    -1.424693     0.240719
H      1.428688     1.250442     0.218360
9
Iteration 6, Energy=-154.0924067040, |grad|=0.015013
C     -0.917922     0.070164     0.050023
C      0.511480    -0.409576    -0.147766
O      1.449572     0.367920     0.544688
H     -1.093976     1.022647    -0.462363
H     -1.632307    -0.655160    -0.346794
H     -1.121627     0.226339     1.111549
H      0.762515    -0.456717    -1.213140
H      0.611504    -1.422216     0.250271
H      1.425386     1.255807     0.213378
9
Iteration 7, Energy=-154.0924508364, |grad|=0.005464
C     -0.917592     0.072654     0.048608
C      0.511304    -0.411177    -0.145705
O      1.449551     0.368951     0.544893
H     -1.093797     1.023493    -0.463082
H     -1.632079    -0.655061    -0.346152
H     -1.121352     0.224019     1.111060
H      0.760668    -0.457050    -1.212729
H      0.612755    -1.421719     0.249723
H      1.425169     1.255098     0.213230
9
Iteration 8, Energy=-154.0924693125, |grad|=0.004776
C     -0.917168     0.074514     0.047342
C      0.511213    -0.411517    -0.144697
O      1.449893     0.369972     0.544457
H     -1.094313     1.026348    -0.462051
H     -1.631384    -0.653947    -0.346983
H     -1.120686     0.219421     1.110413
H      0.759810    -0.459501    -1.211767
H      0.612963    -1.421259     0.251069
H      1.424299     1.255176     0.212062
9
Iteration 9, Energy=-154.0924900650, |grad|=0.004776
C     -0.916464     0.075969     0.046509
C      0.511144    -0.411456    -0.144310
O      1.449964     0.371544     0.543235
H     -1.094428     1.030356    -0.458894
H     -1.630000    -0.651203    -0.350106
H     -1.120212     0.212342     1.110168
H      0.759259    -0.464067    -1.211161
H      0.612560    -1.420013     0.254678
H      1.422803     1.255735     0.209727
9
Iteration 10, Energy=-154.0925314537, |grad|=0.005616
C     -0.915042     0.077584     0.046315
C      0.511210    -0.411671    -0.144300
O      1.449354     0.374982     0.540221
H     -1.091080     1.036650    -0.450829
H     -1.627750    -0.644909    -0.359686
H     -1.121204     0.198914     1.111412
H      0.756767    -0.472927    -1.210590
H      0.612564    -1.417051     0.263341
H      1.419807     1.257634     0.203960
9
Iteration 1, Energy=-154.0925385246, |grad|=0.005802
C     -0.914804     0.077693     0.046312
C      0.511214    -0.411974    -0.144189
O      1.449247     0.375754     0.539383
H     -1.090482     1.038409    -0.448674
H     -1.627568    -0.643199    -0.362541
H     -1.121252     0.196139     1.111570
H      0.756711    -0.475640    -1.210588
H      0.612570    -1.416769     0.265722
H      1.418890     1.258196     0.203440
9
Iteration 2, Energy=-154.0925432876, |grad|=0.005976
C     -0.914546     0.077444     0.046420
C      0.511198    -0.412060    -0.144326
O      1.449198     0.376469     0.538561
H     -1.090157     1.039893    -0.446623
H     -1.627583    -0.641888    -0.364874
H     -1.121261     0.193438     1.111846
H      0.757230    -0.477850    -1.210745
H      0.612402    -1.416557     0.267718
H      1.418129     1.258698     0.202561
9
Iteration -1, Energy=-154.0925314537, |grad|=0.005616
C     -0.915042     0.077584     0.046315
C      0.511210    -0.411671    -0.144300
O      1.449354     0.374982     0.540221
H     -1.091080     1.036650    -0.450829
H     -1.627750    -0.644909    -0.359686
H     -1.121204     0.198914     1.111412
H      0.756767    -0.472927    -1.210590
H      0.612564    -1.417051     0.263341
H      1.419807     1.257634     0.203960
9
Iteration 1, Energy=-154.0925399443, |grad|=0.007368
C     -0.915506     0.075204     0.047520
C      0.511088    -0.410968    -0.143742
O      1.449179     0.374253     0.539825
H     -1.089599     1.036715    -0.450304
H     -1.627718    -0.644153    -0.360860
H     -1.122049     0.199534     1.111520
H      0.756551    -0.472711    -1.211125
H      0.612895    -1.417285     0.263815
H      1.419785     1.258618     0.203197
9
Iteration 2, Energy=-154.0925488822, |grad|=0.004788
C     -0.915554     0.075079     0.047778
C      0.511018    -0.411359    -0.143692
O      1.449188     0.374892     0.539457
H     -1.088732     1.036260    -0.449744
H     -1.627929    -0.644052    -0.361604
H     -1.122594     0.199758     1.111778
H      0.756311    -0.472555    -1.211165
H      0.613112    -1.417235     0.263974
H      1.419807     1.258418     0.203063
9
Iteration 3, Energy=-154.0925688120, |grad|=0.004134
C     -0.915839     0.073884     0.049163
C      0.510806    -0.412557    -0.143393
O      1.449124     0.376431     0.538045
H     -1.084290     1.034342    -0.447051
H     -1.628880    -0.643321    -0.365302
H     -1.125424     0.200765     1.113016
H      0.754976    -0.471846    -1.211287
H      0.614380    -1.417249     0.264938
H      1.419773     1.258756     0.201717
9
Iteration 4, Energy=-154.0925787389, |grad|=0.003988
C     -0.915923     0.072945     0.050008
C      0.510752    -0.413112    -0.143041
O      1.449093     0.377030     0.537257
H     -1.080822     1.033649    -0.445190
H     -1.629453    -0.642475    -0.367927
H     -1.127830     0.200812     1.113821
H      0.753489    -0.471521    -1.210959
H      0.615816    -1.417579     0.265757
H      1.419505     1.259458     0.200119
9
Iteration 5, Energy=-154.0925953829, |grad|=0.006112
C     -0.916273     0.070392     0.052479
C      0.510661    -0.414579    -0.140240
O      1.448996     0.379402     0.535043
H     -1.072311     1.034245    -0.441215
H     -1.630166    -0.639375    -0.373863
H     -1.134074     0.198808     1.114616
H      0.749123    -0.471407    -1.210191
H      0.620308    -1.418533     0.267653
H      1.418363     1.260253     0.195562
9
Iteration 6, Energy=-154.0926124150, |grad|=0.006439
C     -0.915859     0.071035     0.053325
C      0.510691    -0.415761    -0.138301
O      1.449228     0.380915     0.534036
H     -1.063595     1.036050    -0.436651
H     -1.630455    -0.635506    -0.379559
H     -1.141327     0.193444     1.115319
H      0.743335    -0.472551    -1.207409
H      0.626424    -1.420240     0.270210
H      1.416183     1.261822     0.188876
9
Iteration 7, Energy=-154.0926237061, |grad|=0.003160
C     -0.915652     0.071141     0.053106
C      0.510747    -0.415663    -0.137586
O      1.449177     0.381289     0.534021
H     -1.064105     1.037798    -0.436863
H     -1.629818    -0.634684    -0.379169
H     -1.141442     0.191617     1.114849
H      0.743131    -0.473392    -1.207146
H      0.626830    -1.420172     0.270366
H      1.415759     1.261272     0.188267
9
Iteration 8, Energy=-154.0926315970, |grad|=0.002690
C     -0.915212     0.071995     0.053094
C      0.510924    -0.415757    -0.136532
O      1.449045     0.381918     0.533826
H     -1.064128     1.040328    -0.436145
H     -1.628990    -0.633107    -0.379691
H     -1.142278     0.188088     1.114263
H      0.742642    -0.475073    -1.206568
H      0.627748    -1.419962     0.271157
H      1.414874     1.260776     0.186441
9
Iteration 9, Energy=-154.0926388120, |grad|=0.003707
C     -0.914964     0.072153     0.053022
C      0.510915    -0.415725    -0.136129
O      1.449056     0.382960     0.533206
H     -1.063266     1.042283    -0.433936
H     -1.628246    -0.631072    -0.381750
H     -1.143693     0.184731     1.114591
H      0.742437    -0.477004    -1.206001
H      0.628388    -1.419690     0.272825
H      1.414000     1.260569     0.184017
9
Iteration 10, Energy=-154.0926618316, |grad|=0.005180
C     -0.914160     0.073144     0.053964
C      0.511272    -0.416427    -0.134384
O      1.448800     0.386283     0.530397
H     -1.060156     1.048650    -0.424621
H     -1.626164    -0.624159    -0.390799
H     -1.148424     0.172845     1.115592
H      0.742680    -0.484200    -1.204535
H      0.629633    -1.417755     0.279303
H      1.411147     1.260825     0.174929
9
Iteration 1, Energy=-154.0926615230, |grad|=0.005537
C     -0.914103     0.073297     0.054000
C      0.511304    -0.416439    -0.134266
O      1.448780     0.386498     0.530272
H     -1.060044     1.049210    -0.424205
H     -1.625966    -0.623650    -0.391245
H     -1.148689     0.171791     1.115621
H      0.742736    -0.484756    -1.204426
H      0.629691    -1.417619     0.279749
H      1.410911     1.260827     0.174425
9
Iteration 2, Energy=-154.0926619526, |grad|=0.005709
C     -0.914089     0.073366     0.053993
C      0.511322    -0.416428    -0.134246
O      1.448767     0.386626     0.530187
H     -1.060158     1.049441    -0.423858
H     -1.625869    -0.623354    -0.391497
H     -1.148694     0.171223     1.115647
H      0.742859    -0.485040    -1.204413
H      0.629600    -1.417503     0.280024
H      1.410811     1.260798     0.174116
9
Iteration -1, Energy=-154.0926618316, |grad|=0.005180
C     -0.914160     0.073144     0.053964
C      0.511272    -0.416427    -0.134384
O      1.448800     0.386283     0.530397
H     -1.060156     1.048650    -0.424621
H     -1.626164    -0.624159    -0.390799
H     -1.148424     0.172845     1.115592
H      0.742680    -0.484200    -1.204535
H      0.629633    -1.417755     0.279303
H      1.411147     1.260825     0.174929
9
Iteration 1, Energy=-154.0926682715, |grad|=0.004361
C     -0.914198     0.073735     0.053988
C      0.511403    -0.416400    -0.134997
O      1.448852     0.385726     0.530306
H     -1.060060     1.047836    -0.423579
H     -1.626706    -0.624660    -0.391704
H     -1.148120     0.173093     1.115651
H      0.743030    -0.484233    -1.204269
H      0.629017    -1.417736     0.279773
H      1.411408     1.261845     0.174676
9
Iteration 2, Energy=-154.0926728175, |grad|=0.003352
C     -0.914352     0.073414     0.053948
C      0.511330    -0.416448    -0.135152
O      1.448952     0.386111     0.529891
H     -1.060050     1.047579    -0.422841
H     -1.626939    -0.624807    -0.392351
H     -1.147830     0.173302     1.115726
H      0.743404    -0.484294    -1.204274
H      0.628412    -1.417630     0.280125
H      1.411700     1.261980     0.174774
9
Iteration 3, Energy=-154.0926814377, |grad|=0.002185
C     -0.915182     0.070950     0.053810
C      0.511034    -0.416294    -0.135393
O      1.449306     0.386835     0.528205
H     -1.060181     1.047144    -0.419588
H     -1.627734    -0.625107    -0.395234
H     -1.146411     0.173980     1.115991
H      0.745238    -0.484801    -1.204573
H      0.625526    -1.416963     0.281869
H      1.413030     1.263463     0.174757
9
Iteration 4, Energy=-154.0926837230, |grad|=0.002686
C     -0.915018     0.071553     0.053784
C      0.511111    -0.416537    -0.135675
O      1.449262     0.387444     0.528015
H     -1.060567     1.047555    -0.418876
H     -1.627800    -0.625077    -0.395789
H     -1.146150     0.172888     1.115864
H      0.745505    -0.485498    -1.204478
H      0.625003    -1.416436     0.282465
H      1.413280     1.263313     0.174536
9
Iteration 5, Energy=-154.0926858631, |grad|=0.002718
C     -0.914931     0.071837     0.053569
C      0.511145    -0.416411    -0.135796
O      1.449198     0.387629     0.527977
H     -1.060921     1.048094    -0.418386
H     -1.627674    -0.624845    -0.396090
H     -1.145988     0.171823     1.115829
H      0.745690    -0.486167    -1.204451
H      0.624681    -1.416096     0.283006
H      1.413427     1.263342     0.174188
9
Iteration 6, Energy=-154.0926931353, |grad|=0.004183
C     -0.915124     0.073279     0.052874
C      0.511063    -0.415807    -0.135774
O      1.448862     0.388907     0.527058
H     -1.063514     1.052397    -0.413465
H     -1.626470    -0.622471    -0.399686
H     -1.144662     0.163234     1.114982
H      0.747762    -0.491612    -1.204445
H      0.621839    -1.413050     0.287598
H      1.414870     1.264328     0.170702
9
Iteration 7, Energy=-154.0926961981, |grad|=0.001629
C     -0.914876     0.073174     0.052042
C      0.510918    -0.415114    -0.136316
O      1.448889     0.389471     0.526634
H     -1.063959     1.053284    -0.411854
H     -1.626297    -0.621822    -0.400946
H     -1.144664     0.161389     1.115499
H      0.748200    -0.492868    -1.203967
H      0.621146    -1.412742     0.289006
H      1.415269     1.264433     0.169748
9
Iteration 8, Energy=-154.0926971708, |grad|=0.001255
C     -0.914964     0.072776     0.052131
C      0.510966    -0.415178    -0.136127
O      1.448933     0.389411     0.526473
H     -1.063633     1.052972    -0.411812
H     -1.626406    -0.621848    -0.401139
H     -1.144926     0.162010     1.115672
H      0.748118    -0.492487    -1.203902
H      0.621297    -1.412944     0.288813
H      1.415242     1.264495     0.169736
9
Iteration 9, Energy=-154.0926993843, |grad|=0.001640
C     -0.915119     0.072070     0.052556
C      0.510983    -0.415238    -0.135685
O      1.449121     0.389649     0.526001
H     -1.062956     1.052999    -0.410784
H     -1.626451    -0.621316    -0.402506
H     -1.145895     0.161945     1.115946
H      0.748005    -0.492412    -1.203520
H      0.621635    -1.413146     0.289138
H      1.415303     1.264655     0.168698
9
Iteration 10, Energy=-154.0927034054, |grad|=0.003150
C     -0.915454     0.071398     0.052936
C      0.511137    -0.415506    -0.134344
O      1.449403     0.390650     0.524821
H     -1.061633     1.053878    -0.407325
H     -1.626132    -0.619376    -0.406300
H     -1.148441     0.159590     1.116646
H      0.747775    -0.493370    -1.202587
H      0.622356    -1.412977     0.290755
H      1.415615     1.264920     0.165243
9
Iteration 1, Energy=-154.0927045455, |grad|=0.002712
C     -0.915391     0.071503     0.052969
C      0.511109    -0.415528    -0.134314
O      1.449353     0.390839     0.524668
H     -1.061342     1.054219    -0.406874
H     -1.626142    -0.619105    -0.406795
H     -1.148643     0.158869     1.116465
H      0.747744    -0.493700    -1.202530
H      0.622314    -1.412788     0.291134
H      1.415588     1.265024     0.164896
9
Iteration 2, Energy=-154.0927048407, |grad|=0.002840
C     -0.915401     0.071502     0.052931
C      0.511108    -0.415484    -0.134276
O      1.449355     0.390967     0.524555
H     -1.061365     1.054437    -0.406462
H     -1.626100    -0.618864    -0.407212
H     -1.148731     0.158383     1.116490
H      0.747791    -0.493925    -1.202459
H      0.622256    -1.412696     0.291420
H      1.415659     1.265073     0.164506
9
Iteration -1, Energy=-154.0927045455, |grad|=0.002712
C     -0.915391     0.071503     0.052969
C      0.511109    -0.415528    -0.134314
O      1.449353     0.390839     0.524668
H     -1.061342     1.054219    -0.406874
H     -1.626142    -0.619105    -0.406795
H     -1.148643     0.158869     1.116465
H      0.747744    -0.493700    -1.202530
H      0.622314    -1.412788     0.291134
H      1.415588     1.265024     0.164896
9
Iteration 1, Energy=-154.0927057425, |grad|=0.001437
C     -0.915288     0.071989     0.053337
C      0.511056    -0.415679    -0.134710
O      1.449410     0.391189     0.524810
H     -1.061207     1.054179    -0.406846
H     -1.626208    -0.619210    -0.406852
H     -1.148788     0.158657     1.116209
H      0.747571    -0.493722    -1.202376
H      0.622480    -1.412842     0.291207
H      1.415566     1.264773     0.164840
9
Iteration 2, Energy=-154.0927061313, |grad|=0.001046
C     -0.915280     0.072018     0.053307
C      0.511056    -0.415657    -0.134650
O      1.449377     0.391113     0.524896
H     -1.061116     1.054245    -0.406841
H     -1.626152    -0.619150    -0.406815
H     -1.148908     0.158534     1.116193
H      0.747474    -0.493741    -1.202409
H      0.622592    -1.412850     0.291231
H      1.415548     1.264821     0.164706
9
Iteration 3, Energy=-154.0927072021, |grad|=0.001222
C     -0.915213     0.072182     0.053236
C      0.511051    -0.415642    -0.134394
O      1.449209     0.391095     0.525204
H     -1.060635     1.054598    -0.406805
H     -1.625891    -0.618862    -0.406675
H     -1.149542     0.157899     1.116092
H      0.746966    -0.493825    -1.202523
H      0.623160    -1.412875     0.291349
H      1.415486     1.264762     0.164135
9
Iteration 4, Energy=-154.0927079946, |grad|=0.001172
C     -0.915108     0.072269     0.053277
C      0.511095    -0.415676    -0.134135
O      1.448970     0.391289     0.525358
H     -1.060042     1.055011    -0.406700
H     -1.625671    -0.618556    -0.406695
H     -1.150291     0.157219     1.116013
H      0.746397    -0.493887    -1.202507
H      0.623770    -1.412876     0.291484
H      1.415471     1.264539     0.163525
9
Iteration 5, Energy=-154.0927091012, |grad|=0.001567
C     -0.914997     0.072438     0.053549
C      0.511032    -0.415845    -0.133782
O      1.448676     0.391632     0.525446
H     -1.058757     1.055398    -0.406045
H     -1.625517    -0.618067    -0.407427
H     -1.151700     0.156146     1.116027
H      0.745495    -0.493914    -1.202126
H      0.624782    -1.412885     0.291816
H      1.415575     1.264431     0.162162
9
Iteration 6, Energy=-154.0927107345, |grad|=0.001309
C     -0.915238     0.071940     0.054151
C      0.510842    -0.415980    -0.132857
O      1.448344     0.392665     0.525169
H     -1.056512     1.056042    -0.404588
H     -1.625239    -0.616970    -0.409178
H     -1.154023     0.154506     1.116141
H      0.744227    -0.493948    -1.201535
H      0.626276    -1.413003     0.292505
H      1.415914     1.264081     0.159811
9
Iteration 7, Energy=-154.0927119845, |grad|=0.001032
C     -0.915364     0.071675     0.054546
C      0.510839    -0.416201    -0.132364
O      1.448241     0.393196     0.524779
H     -1.055380     1.056075    -0.403328
H     -1.625380    -0.616443    -0.410779
H     -1.155190     0.153792     1.116415
H      0.743805    -0.493946    -1.201022
H      0.626774    -1.413000     0.292990
H      1.416246     1.264184     0.158381
9
Iteration 8, Energy=-154.0927128301, |grad|=0.001827
C     -0.915602     0.070871     0.055145
C      0.510688    -0.416196    -0.132119
O      1.448393     0.393978     0.524311
H     -1.054184     1.056192    -0.401219
H     -1.625572    -0.615476    -0.413324
H     -1.156612     0.152746     1.116792
H      0.743571    -0.494135    -1.200208
H      0.627110    -1.413159     0.294034
H      1.416797     1.264512     0.156208
9
Iteration 9, Energy=-154.0927135981, |grad|=0.000957
C     -0.915729     0.070868     0.055104
C      0.510783    -0.416408    -0.131706
O      1.448412     0.394205     0.524070
H     -1.054234     1.056157    -0.400506
H     -1.625620    -0.615193    -0.413994
H     -1.156738     0.152386     1.116874
H      0.743800    -0.494315    -1.200266
H      0.626916    -1.412973     0.294318
H      1.417000     1.264605     0.155725
9
Iteration 10, Energy=-154.0927141177, |grad|=0.000989
C     -0.915724     0.070903     0.055031
C      0.510863    -0.416386    -0.131623
O      1.448399     0.394280     0.524036
H     -1.054473     1.056326    -0.400142
H     -1.625569    -0.614978    -0.414216
H     -1.156743     0.151988     1.116835
H      0.743981    -0.494554    -1.200327
H      0.626759    -1.412868     0.294584
H      1.417097     1.264623     0.155442
9
Iteration 1, Energy=-154.0927141190, |grad|=0.001018
C     -0.915655     0.070978     0.055121
C      0.510782    -0.416381    -0.131649
O      1.448360     0.394318     0.523926
H     -1.054369     1.056436    -0.399880
H     -1.625468    -0.614902    -0.414544
H     -1.156788     0.151757     1.116861
H      0.743449    -0.494688    -1.200171
H      0.627301    -1.412793     0.294746
H      1.417143     1.264559     0.155266
9
Iteration 2, Energy=-154.0927142925, |grad|=0.001046
C     -0.915752     0.070841     0.055143
C      0.510842    -0.416430    -0.131513
O      1.448356     0.394591     0.523968
H     -1.054083     1.056454    -0.399682
H     -1.625567    -0.614711    -0.414722
H     -1.157131     0.151410     1.116878
H      0.743793    -0.494649    -1.200167
H      0.626970    -1.412829     0.294869
H      1.417252     1.264613     0.154851
9
Iteration -1, Energy=-154.0927141177, |grad|=0.000989
C     -0.915724     0.070903     0.055031
C      0.510863    -0.416386    -0.131623
O      1.448399     0.394280     0.524036
H     -1.054473     1.056326    -0.400142
H     -1.625569    -0.614978    -0.414216
H     -1.156743     0.151988     1.116835
H      0.743981    -0.494554    -1.200327
H      0.626759    -1.412868     0.294584
H      1.417097     1.264623     0.155442
9
Iteration 1, Energy=-154.0927144690, |grad|=0.001073
C     -0.915625     0.070885     0.055023
C      0.510838    -0.416177    -0.131904
O      1.448371     0.394287     0.524094
H     -1.054671     1.056616    -0.400133
H     -1.625494    -0.614918    -0.414145
H     -1.156698     0.151700     1.116764
H      0.744042    -0.494740    -1.200211
H      0.626715    -1.412861     0.294751
H      1.417112     1.264540     0.155381
9
Iteration 2, Energy=-154.0927148311, |grad|=0.000931
C     -0.915575     0.071015     0.054928
C      0.510851    -0.416157    -0.131935
O      1.448322     0.394290     0.524111
H     -1.054873     1.056825    -0.400065
H     -1.625425    -0.614871    -0.414093
H     -1.156636     0.151395     1.116714
H      0.744137    -0.494924    -1.200215
H      0.626644    -1.412729     0.294858
H      1.417145     1.264488     0.155315
9
Iteration 3, Energy=-154.0927157403, |grad|=0.001699
C     -0.915725     0.071807     0.054525
C      0.510845    -0.415748    -0.132021
O      1.448266     0.394260     0.524229
H     -1.056226     1.057974    -0.399175
H     -1.625028    -0.614524    -0.414224
H     -1.155996     0.149351     1.116271
H      0.745068    -0.496289    -1.200445
H      0.625873    -1.412003     0.295806
H      1.417514     1.264504     0.154652
9
Iteration 4, Energy=-154.0927161545, |grad|=0.000869
C     -0.915636     0.071879     0.054329
C      0.510828    -0.415826    -0.132098
O      1.448266     0.394572     0.524108
H     -1.056543     1.058240    -0.398902
H     -1.624993    -0.614455    -0.414374
H     -1.155890     0.148933     1.116336
H      0.745278    -0.496571    -1.200383
H      0.625618    -1.411759     0.296013
H      1.417662     1.264319     0.154589
9
Iteration 5, Energy=-154.0927163487, |grad|=0.000611
C     -0.915606     0.071741     0.054339
C      0.510852    -0.415887    -0.132093
O      1.448276     0.394576     0.524042
H     -1.056455     1.058136    -0.398849
H     -1.625070    -0.614478    -0.414522
H     -1.155933     0.149093     1.116448
H      0.745251    -0.496481    -1.200312
H      0.625579    -1.411771     0.295985
H      1.417697     1.264403     0.154583
9
Iteration 6, Energy=-154.0927166894, |grad|=0.000428
C     -0.915609     0.071521     0.054376
C      0.510921    -0.415881    -0.132097
O      1.448268     0.394687     0.523793
H     -1.056559     1.058142    -0.398353
H     -1.625176    -0.614407    -0.415103
H     -1.155884     0.148937     1.116573
H      0.745450    -0.496621    -1.200154
H      0.625220    -1.411634     0.296236
H      1.417959     1.264588     0.154349
9
Iteration 7, Energy=-154.0927168784, |grad|=0.000796
C     -0.915681     0.071404     0.054197
C      0.510798    -0.415797    -0.132149
O      1.448371     0.394885     0.523637
H     -1.056822     1.058308    -0.397525
H     -1.625130    -0.614154    -0.415808
H     -1.155832     0.148303     1.116693
H      0.745782    -0.497032    -1.200016
H      0.624768    -1.411395     0.296762
H      1.418337     1.264811     0.153828
9
Iteration 8, Energy=-154.0927170581, |grad|=0.000443
C     -0.915751     0.071395     0.054315
C      0.510841    -0.415735    -0.132120
O      1.448344     0.395050     0.523486
H     -1.056965     1.058496    -0.397040
H     -1.625113    -0.614008    -0.416271
H     -1.155827     0.147817     1.116616
H      0.745953    -0.497305    -1.199951
H      0.624529    -1.411231     0.297098
H      1.418580     1.264855     0.153486
9
Iteration 9, Energy=-154.0927172181, |grad|=0.000461
C     -0.915814     0.071438     0.054347
C      0.510847    -0.415637    -0.132046
O      1.448309     0.395210     0.523403
H     -1.057040     1.058732    -0.396593
H     -1.625028    -0.613814    -0.416644
H     -1.155934     0.147242     1.116551
H      0.746032    -0.497578    -1.199915
H      0.624429    -1.411098     0.297437
H      1.418790     1.264839     0.153079
9
Iteration 10, Energy=-154.0927175891, |grad|=0.000794
C     -0.915938     0.071520     0.054459
C      0.510813    -0.415524    -0.131852
O      1.448250     0.395632     0.523268
H     -1.056983     1.059266    -0.395495
H     -1.624819    -0.613305    -0.417630
H     -1.156442     0.145859     1.116452
H      0.746030    -0.498129    -1.199746
H      0.624386    -1.410798     0.298225
H      1.419294     1.264812     0.151938
9
Iteration 1, Energy=-154.0927172441, |grad|=0.000882
C     -0.915813     0.071482     0.054232
C      0.510857    -0.415624    -0.132014
O      1.448332     0.395633     0.523308
H     -1.057279     1.059185    -0.395080
H     -1.624981    -0.613384    -0.417314
H     -1.156097     0.146198     1.116595
H      0.746346    -0.498092    -1.199766
H      0.624267    -1.410871     0.298356
H      1.419220     1.264856     0.152234
9
Iteration 2, Energy=-154.0927175303, |grad|=0.000844
C     -0.915939     0.071539     0.054450
C      0.510808    -0.415501    -0.131873
O      1.448241     0.395588     0.523270
H     -1.057033     1.059275    -0.395616
H     -1.624801    -0.613347    -0.417582
H     -1.156390     0.145866     1.116433
H      0.746040    -0.498142    -1.199761
H      0.624330    -1.410770     0.298180
H      1.419309     1.264813     0.152009
9
Iteration -1, Energy=-154.0927175891, |grad|=0.000794
C     -0.915938     0.071520     0.054459
C      0.510813    -0.415524    -0.131852
O      1.448250     0.395632     0.523268
H     -1.056983     1.059266    -0.395495
H     -1.624819    -0.613305    -0.417630
H     -1.156442     0.145859     1.116452
H      0.746030    -0.498129    -1.199746
H      0.624386    -1.410798     0.298225
H      1.419294     1.264812     0.151938
9
Iteration 1, Energy=-154.0927176823, |grad|=0.000818
C     -0.915797     0.071451     0.054177
C      0.510771    -0.415632    -0.131820
O      1.448248     0.395616     0.523307
H     -1.056895     1.059314    -0.395480
H     -1.624809    -0.613268    -0.417630
H     -1.156632     0.145846     1.116699
H      0.745919    -0.498081    -1.199655
H      0.624495    -1.410743     0.298185
H      1.419289     1.264830     0.151835
9
Iteration 2, Energy=-154.0927177829, |grad|=0.000393
C     -0.915830     0.071467     0.054309
C      0.510800    -0.415609    -0.131823
O      1.448232     0.395637     0.523294
H     -1.056863     1.059324    -0.395487
H     -1.624816    -0.613274    -0.417654
H     -1.156646     0.145832     1.116618
H      0.745903    -0.498076    -1.199650
H      0.624522    -1.410767     0.298190
H      1.419290     1.264798     0.151822
9
Iteration 3, Energy=-154.0927178676, |grad|=0.000351
C     -0.915846     0.071471     0.054409
C      0.510823    -0.415606    -0.131786
O      1.448207     0.395657     0.523293
H     -1.056755     1.059347    -0.395482
H     -1.624816    -0.613256    -0.417696
H     -1.156762     0.145799     1.116579
H      0.745825    -0.498046    -1.199621
H      0.624628    -1.410795     0.298184
H      1.419288     1.264762     0.151739
9
Iteration 4, Energy=-154.0927180687, |grad|=0.000622
C     -0.915877     0.071464     0.054612
C      0.510847    -0.415629    -0.131628
O      1.448145     0.395736     0.523310
H     -1.056355     1.059406    -0.395432
H     -1.624796    -0.613163    -0.417839
H     -1.157215     0.145685     1.116538
H      0.745536    -0.497930    -1.199519
H      0.625019    -1.410883     0.298159
H      1.419286     1.264647     0.151420
9
Iteration 5, Energy=-154.0927182747, |grad|=0.000653
C     -0.915924     0.071423     0.054792
C      0.510819    -0.415682    -0.131389
O      1.448095     0.395832     0.523361
H     -1.055778     1.059432    -0.395293
H     -1.624746    -0.612986    -0.418069
H     -1.157875     0.145530     1.116545
H      0.745141    -0.497759    -1.199391
H      0.625556    -1.411014     0.298146
H      1.419301     1.264557     0.150917
9
Iteration 6, Energy=-154.0927183219, |grad|=0.000746
C     -0.915913     0.071376     0.054829
C      0.510812    -0.415743    -0.131303
O      1.448071     0.395975     0.523326
H     -1.055584     1.059434    -0.395199
H     -1.624740    -0.612910    -0.418198
H     -1.158115     0.145475     1.116585
H      0.745015    -0.497698    -1.199335
H      0.625708    -1.411042     0.298157
H      1.419337     1.264466     0.150756
9
Iteration 7, Energy=-154.0927184276, |grad|=0.000336
C     -0.915923     0.071306     0.054869
C      0.510776    -0.415794    -0.131146
O      1.448046     0.396026     0.523359
H     -1.055222     1.059423    -0.395042
H     -1.624708    -0.612765    -0.418396
H     -1.158548     0.145376     1.116653
H      0.744781    -0.497591    -1.199248
H      0.626013    -1.411115     0.298179
H      1.419375     1.264467     0.150391
9
Iteration 8, Energy=-154.0927184755, |grad|=0.000219
C     -0.915923     0.071244     0.054859
C      0.510758    -0.415821    -0.131093
O      1.448039     0.396070     0.523350
H     -1.055113     1.059397    -0.394900
H     -1.624705    -0.612685    -0.418544
H     -1.158690     0.145322     1.116707
H      0.744736    -0.497568    -1.199214
H      0.626059    -1.411129     0.298234
H      1.419429     1.264503     0.150222
