9
Iteration 0, Energy=-154.0808299299, |grad|=0.128798
C     -0.957263     0.048957     0.042177
C      0.487854    -0.324105    -0.190424
O      1.281648     0.328209     0.738394
H     -1.356428     0.733224    -0.732489
H     -1.592834    -0.861048     0.022160
H     -1.070744     0.594633     1.009659
H      0.787448    -0.140360    -1.234991
H      0.590448    -1.424245    -0.043946
H      1.829871     1.044736     0.389461
9
Iteration 1, Energy=-154.0837996503, |grad|=0.044117
C     -0.977020     0.054531     0.039344
C      0.487693    -0.332548    -0.192952
O      1.302254     0.336299     0.743792
H     -1.353582     0.729531    -0.729129
H     -1.591671    -0.850511     0.025441
H     -1.069217     0.581118     0.999619
H      0.788253    -0.138478    -1.230198
H      0.594696    -1.412625    -0.042175
H      1.818594     1.032682     0.386258
9
Iteration 2, Energy=-154.0842893715, |grad|=0.037178
C     -0.980421     0.055241     0.037367
C      0.486280    -0.331443    -0.191779
O      1.307289     0.332251     0.747786
H     -1.353535     0.729616    -0.729603
H     -1.593526    -0.846437     0.027262
H     -1.069151     0.574516     0.996286
H      0.789041    -0.137246    -1.227614
H      0.597584    -1.408511    -0.040352
H      1.816440     1.032013     0.380648
9
Iteration 3, Energy=-154.0853790570, |grad|=0.031730
C     -0.981548     0.055656     0.025335
C      0.481379    -0.321800    -0.178899
O      1.332781     0.315512     0.755556
H     -1.356907     0.735178    -0.737214
H     -1.609659    -0.832617     0.035078
H     -1.071502     0.546318     0.988652
H      0.794247    -0.129140    -1.214342
H      0.611183    -1.392585    -0.030294
H      1.800026     1.023479     0.356128
9
Iteration 4, Energy=-154.0855821065, |grad|=0.023006
C     -0.983669     0.057162     0.024265
C      0.488936    -0.324526    -0.179249
O      1.335264     0.308956     0.754771
H     -1.357455     0.737536    -0.739569
H     -1.614988    -0.830446     0.034757
H     -1.074031     0.541727     0.990975
H      0.795977    -0.125698    -1.207588
H      0.613361    -1.390190    -0.026654
H      1.796605     1.025478     0.348292
9
Iteration 5, Energy=-154.0857082553, |grad|=0.014947
C     -0.981371     0.056511     0.024385
C      0.489666    -0.324659    -0.177809
O      1.336450     0.307552     0.752015
H     -1.357690     0.739271    -0.740835
H     -1.617819    -0.830161     0.033359
H     -1.075934     0.541339     0.993872
H      0.798007    -0.123674    -1.206081
H      0.614111    -1.392608    -0.024771
H      1.794581     1.026430     0.345867
9
Iteration 6, Energy=-154.0858540779, |grad|=0.013013
C     -0.978894     0.056572     0.025722
C      0.490661    -0.327331    -0.175344
O      1.340822     0.305339     0.746410
H     -1.356516     0.742107    -0.741613
H     -1.623535    -0.828169     0.028995
H     -1.080619     0.539549     0.999209
H      0.803216    -0.119241    -1.202728
H      0.615740    -1.398153    -0.020404
H      1.789125     1.029327     0.339752
9
Iteration 7, Energy=-154.0859556085, |grad|=0.013402
C     -0.978775     0.056127     0.027650
C      0.490948    -0.330097    -0.174257
O      1.346348     0.303834     0.742763
H     -1.353123     0.744264    -0.739809
H     -1.627577    -0.824547     0.023327
H     -1.085250     0.537418     1.003303
H      0.807702    -0.116935    -1.199597
H      0.616821    -1.403571    -0.016576
H      1.782904     1.033508     0.333197
9
Iteration 8, Energy=-154.0860669024, |grad|=0.024400
C     -0.976266     0.059318     0.033393
C      0.492259    -0.339759    -0.167167
O      1.358009     0.301706     0.734422
H     -1.341631     0.749821    -0.731428
H     -1.636276    -0.818648     0.008010
H     -1.094995     0.530785     1.009449
H      0.814881    -0.117636    -1.195568
H      0.617456    -1.410580    -0.010416
H      1.766563     1.044994     0.319306
9
Iteration 9, Energy=-154.0862310788, |grad|=0.013166
C     -0.976701     0.056840     0.036106
C      0.493597    -0.340830    -0.167548
O      1.364975     0.301921     0.731660
H     -1.333341     0.754224    -0.725519
H     -1.638012    -0.813567    -0.001184
H     -1.099638     0.527556     1.013132
H      0.815749    -0.122573    -1.192240
H      0.617082    -1.415104    -0.007260
H      1.756289     1.051533     0.312854
9
Iteration 10, Energy=-154.0864186255, |grad|=0.016273
C     -0.975583     0.054881     0.039260
C      0.495261    -0.343272    -0.165720
O      1.373234     0.302927     0.728256
H     -1.319649     0.762160    -0.715432
H     -1.638807    -0.808269    -0.014853
H     -1.104599     0.521872     1.017193
H      0.813577    -0.134598    -1.190355
H      0.615608    -1.417726    -0.004072
H      1.740957     1.062025     0.305723
9
Iteration 11, Energy=-154.0867586313, |grad|=0.026353
C     -0.970327     0.053521     0.046173
C      0.499037    -0.349988    -0.159442
O      1.390376     0.304262     0.718033
H     -1.288507     0.783886    -0.694105
H     -1.641152    -0.798567    -0.046411
H     -1.114759     0.506246     1.027625
H      0.807345    -0.163441    -1.188006
H      0.613098    -1.423119     0.005457
H      1.704890     1.087201     0.290674
9
Iteration 12, Energy=-154.0874047385, |grad|=0.041349
C     -0.960029     0.053612     0.055157
C      0.507806    -0.366074    -0.146626
O      1.420199     0.310498     0.689162
H     -1.225047     0.835277    -0.652407
H     -1.641285    -0.778566    -0.110721
H     -1.131054     0.468330     1.052656
H      0.789973    -0.226473    -1.187605
H      0.609938    -1.432755     0.032151
H      1.629501     1.136151     0.268232
9
Iteration 13, Energy=-154.0880721015, |grad|=0.075024
C     -0.937459     0.063578     0.069931
C      0.514467    -0.385883    -0.137965
O      1.450279     0.327088     0.638911
H     -1.128739     0.919030    -0.586274
H     -1.632409    -0.748029    -0.209620
H     -1.146377     0.399526     1.085027
H      0.754149    -0.333059    -1.194838
H      0.607994    -1.448316     0.085542
H      1.518095     1.206064     0.249286
9
Iteration 14, Energy=-154.0888353520, |grad|=0.071081
C     -0.927069     0.071969     0.058954
C      0.515112    -0.391894    -0.141326
O      1.433768     0.351788     0.607893
H     -1.090818     0.963040    -0.555546
H     -1.603934    -0.733207    -0.243528
H     -1.132883     0.358989     1.094793
H      0.716313    -0.400094    -1.215118
H      0.608371    -1.439578     0.119719
H      1.481141     1.218987     0.274158
9
Iteration 15, Energy=-154.0902331640, |grad|=0.039714
C     -0.919846     0.076702     0.058356
C      0.513194    -0.407565    -0.136967
O      1.445391     0.348065     0.581110
H     -1.068751     0.984912    -0.536726
H     -1.609222    -0.710490    -0.275527
H     -1.142760     0.331601     1.111286
H      0.721256    -0.412270    -1.212613
H      0.614697    -1.452575     0.152898
H      1.446040     1.241620     0.258184
9
Iteration 16, Energy=-154.0907801157, |grad|=0.029066
C     -0.920880     0.079359     0.058855
C      0.502978    -0.410232    -0.143218
O      1.440367     0.336157     0.580639
H     -1.100337     0.962616    -0.552461
H     -1.620751    -0.702149    -0.256675
H     -1.140648     0.335166     1.101738
H      0.745799    -0.368617    -1.206867
H      0.623428    -1.457058     0.164444
H      1.470044     1.224757     0.253545
9
Iteration 17, Energy=-154.0912524712, |grad|=0.057394
C     -0.909772     0.079225     0.062648
C      0.501180    -0.430084    -0.137963
O      1.458907     0.348813     0.541803
H     -1.050416     1.022527    -0.506872
H     -1.612907    -0.661392    -0.321874
H     -1.135317     0.270919     1.113782
H      0.725387    -0.437882    -1.224157
H      0.626329    -1.451833     0.225645
H      1.396608     1.259708     0.246988
9
Iteration 18, Energy=-154.0918362726, |grad|=0.023833
C     -0.911310     0.083209     0.054564
C      0.507158    -0.422527    -0.142478
O      1.452538     0.348134     0.546726
H     -1.059566     1.013915    -0.507096
H     -1.614622    -0.664410    -0.314987
H     -1.128041     0.272330     1.110266
H      0.723053    -0.437514    -1.223996
H      0.624837    -1.444008     0.224477
H      1.405952     1.250871     0.252525
9
Iteration 19, Energy=-154.0921153307, |grad|=0.014102
C     -0.907378     0.084596     0.051182
C      0.510312    -0.421529    -0.145800
O      1.456596     0.351856     0.538993
H     -1.055926     1.021689    -0.494103
H     -1.619650    -0.653793    -0.329165
H     -1.121722     0.255659     1.110028
H      0.720842    -0.453036    -1.224398
H      0.624007    -1.436628     0.241342
H      1.392920     1.251186     0.251922
9
Iteration 20, Energy=-154.0923275884, |grad|=0.010246
C     -0.905342     0.081986     0.048712
C      0.514580    -0.422960    -0.145913
O      1.464641     0.355669     0.524963
H     -1.052309     1.032276    -0.475747
H     -1.627952    -0.635022    -0.349221
H     -1.114855     0.233175     1.109410
H      0.724521    -0.471907    -1.222307
H      0.622057    -1.427077     0.262645
H      1.374658     1.253859     0.247457
9
Iteration 21, Energy=-154.0924048516, |grad|=0.013089
C     -0.902878     0.083102     0.048384
C      0.514095    -0.426769    -0.146922
O      1.470734     0.362265     0.513074
H     -1.041913     1.042389    -0.459122
H     -1.630022    -0.623495    -0.367088
H     -1.115522     0.218407     1.113595
H      0.726732    -0.490854    -1.219324
H      0.620476    -1.427327     0.274319
H      1.358298     1.262283     0.243085
9
Iteration 22, Energy=-154.0924838140, |grad|=0.007319
C     -0.902545     0.081054     0.049789
C      0.513450    -0.427065    -0.146069
O      1.470614     0.366797     0.504964
H     -1.041066     1.046302    -0.447720
H     -1.631878    -0.614566    -0.375515
H     -1.114699     0.210133     1.112397
H      0.734075    -0.503072    -1.216507
H      0.617831    -1.425542     0.278421
H      1.354218     1.265961     0.240240
9
Iteration 23, Energy=-154.0925039218, |grad|=0.005574
C     -0.902655     0.081701     0.049746
C      0.514525    -0.429017    -0.146204
O      1.468550     0.368912     0.498887
H     -1.037661     1.051859    -0.439090
H     -1.630382    -0.608097    -0.382017
H     -1.115719     0.202436     1.113487
H      0.736619    -0.512980    -1.216280
H      0.617229    -1.425677     0.283580
H      1.349494     1.270863     0.237891
9
Iteration 24, Energy=-154.0925151420, |grad|=0.004666
C     -0.902757     0.081666     0.049909
C      0.513884    -0.428918    -0.146274
O      1.467314     0.369427     0.501151
H     -1.039889     1.050274    -0.439739
H     -1.630516    -0.609515    -0.379413
H     -1.117394     0.204553     1.113166
H      0.738959    -0.511127    -1.215852
H      0.617028    -1.426136     0.280425
H      1.353371     1.269776     0.236627
9
Iteration 25, Energy=-154.0925274486, |grad|=0.004278
C     -0.902521     0.081732     0.050174
C      0.513719    -0.428072    -0.146510
O      1.466047     0.369747     0.503894
H     -1.041577     1.050217    -0.439425
H     -1.630846    -0.610660    -0.377740
H     -1.119427     0.205113     1.112863
H      0.740918    -0.510405    -1.216008
H      0.617105    -1.426551     0.278575
H      1.356581     1.268878     0.234176
9
Iteration 26, Energy=-154.0925478044, |grad|=0.004740
C     -0.903160     0.082035     0.049700
C      0.513970    -0.427345    -0.146725
O      1.463602     0.370223     0.509484
H     -1.045421     1.051271    -0.437357
H     -1.632074    -0.611531    -0.375710
H     -1.123048     0.203487     1.112357
H      0.745288    -0.508891    -1.216141
H      0.617628    -1.426011     0.277215
H      1.363217     1.266762     0.227178
9
Iteration 27, Energy=-154.0925725971, |grad|=0.006692
C     -0.905047     0.081350     0.049410
C      0.513763    -0.425146    -0.145516
O      1.459810     0.372151     0.514607
H     -1.048170     1.055265    -0.432804
H     -1.633707    -0.612065    -0.377863
H     -1.126667     0.197963     1.112932
H      0.749822    -0.507850    -1.214417
H      0.618099    -1.426173     0.278044
H      1.372096     1.264506     0.215607
9
Iteration 28, Energy=-154.0926008187, |grad|=0.007349
C     -0.908119     0.081475     0.049197
C      0.513501    -0.423847    -0.143207
O      1.455383     0.374145     0.521195
H     -1.051722     1.058638    -0.426182
H     -1.636326    -0.612378    -0.382465
H     -1.129481     0.189486     1.112633
H      0.754393    -0.505673    -1.211185
H      0.618183    -1.423726     0.279975
H      1.384189     1.261880     0.200039
9
Iteration 29, Energy=-154.0926309913, |grad|=0.006560
C     -0.911502     0.079967     0.047956
C      0.512354    -0.423092    -0.140485
O      1.452111     0.377913     0.523603
H     -1.051669     1.062420    -0.418399
H     -1.636852    -0.610009    -0.390801
H     -1.130779     0.179267     1.114008
H      0.755665    -0.505303    -1.207163
H      0.617632    -1.421634     0.284819
H      1.393041     1.260471     0.186462
9
Iteration 30, Energy=-154.0926587998, |grad|=0.005466
C     -0.913079     0.078794     0.049022
C      0.510783    -0.422466    -0.138038
O      1.449189     0.381207     0.523598
H     -1.049972     1.063393    -0.412148
H     -1.636174    -0.607515    -0.400183
H     -1.131246     0.170349     1.114483
H      0.753604    -0.504144    -1.203293
H      0.616457    -1.419681     0.290266
H      1.400438     1.260062     0.176293
9
Iteration 31, Energy=-154.0926715761, |grad|=0.009961
C     -0.913427     0.075758     0.049755
C      0.507901    -0.421165    -0.133547
O      1.446316     0.384448     0.527144
H     -1.049288     1.061564    -0.406931
H     -1.633772    -0.605702    -0.407748
H     -1.135979     0.163185     1.115786
H      0.750604    -0.499772    -1.201445
H      0.614960    -1.417291     0.293396
H      1.412684     1.258974     0.163589
9
Iteration 32, Energy=-154.0926896368, |grad|=0.003434
C     -0.913217     0.076109     0.051178
C      0.508960    -0.421196    -0.134649
O      1.445897     0.385908     0.526458
H     -1.047939     1.060853    -0.406454
H     -1.631951    -0.605210    -0.408697
H     -1.138183     0.162626     1.115874
H      0.748328    -0.499977    -1.201692
H      0.614819    -1.417627     0.294215
H      1.413285     1.258515     0.163766
9
Iteration 33, Energy=-154.0926956353, |grad|=0.003055
C     -0.913746     0.076080     0.052136
C      0.509223    -0.420180    -0.134371
O      1.444000     0.387377     0.529101
H     -1.048916     1.061602    -0.404002
H     -1.631701    -0.605527    -0.410040
H     -1.141976     0.159975     1.115919
H      0.749209    -0.499150    -1.200991
H      0.614958    -1.417337     0.294387
H      1.418950     1.257160     0.157861
9
Iteration 34, Energy=-154.0927008742, |grad|=0.002904
C     -0.913693     0.075977     0.052865
C      0.509258    -0.419402    -0.133352
O      1.443867     0.388559     0.529785
H     -1.048717     1.062070    -0.402453
H     -1.630942    -0.605801    -0.411528
H     -1.145770     0.158179     1.116273
H      0.748332    -0.498863    -1.201040
H      0.615430    -1.416754     0.294691
H      1.422235     1.256035     0.154759
9
Iteration 35, Energy=-154.0927070986, |grad|=0.002702
C     -0.914348     0.075501     0.053662
C      0.508909    -0.418338    -0.132011
O      1.444271     0.389734     0.530124
H     -1.048085     1.062823    -0.399597
H     -1.629525    -0.605599    -0.414607
H     -1.151041     0.154900     1.116716
H      0.746591    -0.498591    -1.199990
H      0.616281    -1.415593     0.295814
H      1.426946     1.255164     0.149889
9
Iteration 36, Energy=-154.0927143543, |grad|=0.003231
C     -0.915843     0.075796     0.055109
C      0.508674    -0.417827    -0.129412
O      1.446573     0.390402     0.527232
H     -1.047428     1.065217    -0.395164
H     -1.627300    -0.605118    -0.419043
H     -1.159471     0.150598     1.116441
H      0.744209    -0.499673    -1.198281
H      0.618879    -1.414306     0.297715
H      1.431706     1.254911     0.145403
9
Iteration 37, Energy=-154.0927151799, |grad|=0.003891
C     -0.915798     0.076188     0.054551
C      0.507852    -0.417892    -0.129604
O      1.449287     0.390281     0.525398
H     -1.047201     1.065796    -0.393098
H     -1.627000    -0.604408    -0.421716
H     -1.161521     0.148891     1.116690
H      0.742619    -0.500568    -1.196635
H      0.619968    -1.413889     0.299654
H      1.431795     1.255599     0.144760
9
Iteration 38, Energy=-154.0927178000, |grad|=0.000937
C     -0.915844     0.075817     0.054672
C      0.508390    -0.418075    -0.129753
O      1.448580     0.389847     0.525568
H     -1.047421     1.065440    -0.394302
H     -1.627224    -0.604290    -0.420453
H     -1.159620     0.150095     1.116365
H      0.743246    -0.500455    -1.197357
H      0.619369    -1.414212     0.299081
H      1.430524     1.255834     0.146180
9
Iteration 39, Energy=-154.0927181505, |grad|=0.000686
C     -0.915779     0.075866     0.054632
C      0.508596    -0.418241    -0.129800
O      1.448841     0.389655     0.525283
H     -1.047590     1.065399    -0.394388
H     -1.627324    -0.604114    -0.420403
H     -1.159268     0.150304     1.116261
H      0.743275    -0.500670    -1.197508
H      0.619314    -1.414228     0.299194
H      1.429935     1.256029     0.146730
9
Iteration 40, Energy=-154.0927187030, |grad|=0.000651
C     -0.915576     0.075859     0.054623
C      0.508966    -0.418394    -0.129840
O      1.449756     0.389378     0.524474
H     -1.048078     1.065528    -0.394035
H     -1.627407    -0.603491    -0.420902
H     -1.159159     0.150219     1.116061
H      0.743145    -0.501360    -1.197700
H      0.619313    -1.414141     0.299882
H      1.429041     1.256402     0.147436
9
Iteration 41, Energy=-154.0927188391, |grad|=0.001202
C     -0.915507     0.076066     0.054545
C      0.509264    -0.418482    -0.129867
O      1.450013     0.389555     0.524384
H     -1.048756     1.065624    -0.393182
H     -1.627209    -0.602954    -0.421446
H     -1.159837     0.149510     1.116151
H      0.743402    -0.501964    -1.197867
H      0.619164    -1.413730     0.300395
H      1.429467     1.256376     0.146886
9
Iteration 42, Energy=-154.0927190671, |grad|=0.000335
C     -0.915433     0.075961     0.054659
C      0.509127    -0.418321    -0.129858
O      1.450183     0.389547     0.524200
H     -1.048773     1.065760    -0.393068
H     -1.627168    -0.602885    -0.421673
H     -1.159938     0.149344     1.116101
H      0.743334    -0.502094    -1.197797
H      0.619192    -1.413721     0.300576
H      1.429476     1.256409     0.146861
9
Iteration 43, Energy=-154.0927191157, |grad|=0.000244
C     -0.915444     0.075953     0.054697
C      0.509059    -0.418219    -0.129863
O      1.450149     0.389624     0.524203
H     -1.048811     1.065847    -0.392896
H     -1.627088    -0.602860    -0.421830
H     -1.160104     0.149108     1.116133
H      0.743367    -0.502174    -1.197728
H      0.619158    -1.413650     0.300664
H      1.429714     1.256371     0.146620
