9
Iteration -1, Energy=-154.0837996503, |grad|=0.044117
C     -0.977020     0.054531     0.039344
C      0.487693    -0.332548    -0.192952
O      1.302254     0.336299     0.743792
H     -1.353582     0.729531    -0.729129
H     -1.591671    -0.850511     0.025441
H     -1.069217     0.581118     0.999619
H      0.788253    -0.138478    -1.230198
H      0.594696    -1.412625    -0.042175
H      1.818594     1.032682     0.386258
9
Iteration 0, Energy=-154.0843833249, |grad|=0.059413
C     -0.977280     0.053879     0.035312
C      0.484312    -0.325026    -0.187773
O      1.305233     0.320355     0.751886
H     -1.354690     0.731318    -0.731808
H     -1.597106    -0.844075     0.028915
H     -1.069673     0.569254     0.994917
H      0.790027    -0.136048    -1.225589
H      0.600639    -1.406722    -0.038040
H      1.818537     1.037066     0.372179
9
Iteration 1, Energy=-154.0849708820, |grad|=0.035094
C     -0.978177     0.054365     0.032267
C      0.483032    -0.324225    -0.185418
O      1.313796     0.319380     0.752837
H     -1.355398     0.732475    -0.733440
H     -1.600947    -0.840538     0.030813
H     -1.070298     0.562238     0.992956
H      0.791269    -0.133974    -1.221992
H      0.603824    -1.402234    -0.035695
H      1.812900     1.032512     0.367673
9
Iteration 2, Energy=-154.0855525641, |grad|=0.015882
C     -0.980572     0.055962     0.025149
C      0.485382    -0.322798    -0.179253
O      1.331056     0.312521     0.753421
H     -1.357325     0.736354    -0.738314
H     -1.612045    -0.832437     0.034509
H     -1.072982     0.545639     0.990668
H      0.794820    -0.127776    -1.211446
H      0.611494    -1.392164    -0.028851
H      1.800172     1.024698     0.354117
9
Iteration 3, Energy=-154.0857041185, |grad|=0.012918
C     -0.979866     0.055951     0.024226
C      0.487718    -0.323802    -0.177507
O      1.336536     0.309057     0.751367
H     -1.357812     0.739262    -0.740843
H     -1.617745    -0.830150     0.033355
H     -1.075975     0.541528     0.993742
H      0.798074    -0.123818    -1.206927
H      0.613990    -1.392890    -0.024920
H      1.795081     1.024862     0.347508
9
Iteration 4, Energy=-154.0858879114, |grad|=0.019755
C     -0.984349     0.059975     0.025899
C      0.492191    -0.332712    -0.172545
O      1.350274     0.301923     0.745186
H     -1.353411     0.743306    -0.740109
H     -1.629306    -0.822421     0.024813
H     -1.085134     0.532524     1.000771
H      0.809041    -0.114233    -1.198539
H      0.618760    -1.399964    -0.015309
H      1.781934     1.031603     0.329834
9
Iteration 0, Energy=-154.0378396116, |grad|=0.558825
C     -0.905691     0.116632     0.039997
C      0.578310    -0.366860    -0.179545
O      1.268780     0.271992     0.679680
H     -1.368089     0.650752    -0.829576
H     -1.586276    -0.793072     0.082127
H     -1.142159     0.512822     0.921933
H      0.749537    -0.122233    -1.212013
H      0.669900    -1.370585     0.010389
H      1.871588     1.014980     0.469821
9
Iteration -1, Energy=-154.0858879114, |grad|=0.019755
C     -0.984349     0.059975     0.025899
C      0.492191    -0.332712    -0.172545
O      1.350274     0.301923     0.745186
H     -1.353411     0.743306    -0.740109
H     -1.629306    -0.822421     0.024813
H     -1.085134     0.532524     1.000771
H      0.809041    -0.114233    -1.198539
H      0.618760    -1.399964    -0.015309
H      1.781934     1.031603     0.329834
9
Iteration 0, Energy=-154.0859565451, |grad|=0.009760
C     -0.981954     0.057697     0.026682
C      0.490914    -0.330743    -0.173223
O      1.350611     0.302731     0.744626
H     -1.352888     0.744321    -0.739948
H     -1.629267    -0.822193     0.023716
H     -1.085654     0.533271     1.001545
H      0.808783    -0.115457    -1.198207
H      0.618427    -1.401522    -0.015309
H      1.781028     1.031895     0.330117
9
Iteration 1, Energy=-154.0859975546, |grad|=0.009758
C     -0.979824     0.056415     0.027604
C      0.490388    -0.330369    -0.173284
O      1.350379     0.303304     0.743840
H     -1.351326     0.745188    -0.738538
H     -1.629111    -0.822165     0.021705
H     -1.086398     0.534042     1.002367
H      0.808331    -0.117405    -1.198184
H      0.617654    -1.402515    -0.015595
H      1.779906     1.033506     0.330084
9
Iteration 2, Energy=-154.0860846868, |grad|=0.014129
C     -0.976153     0.054511     0.030372
C      0.490270    -0.331176    -0.173151
O      1.350274     0.305554     0.741346
H     -1.345762     0.747466    -0.733449
H     -1.628222    -0.821957     0.015372
H     -1.088386     0.535496     1.004344
H      0.806840    -0.123462    -1.198516
H      0.615292    -1.404803    -0.016344
H      1.775846     1.038371     0.330025
9
Iteration 3, Energy=-154.0861938558, |grad|=0.019303
C     -0.972940     0.053201     0.034639
C      0.490891    -0.333048    -0.171924
O      1.350322     0.306741     0.738365
H     -1.335240     0.752593    -0.724820
H     -1.626393    -0.821279     0.004225
H     -1.091206     0.535669     1.007862
H      0.804117    -0.134328    -1.200232
H      0.612077    -1.408864    -0.016150
H      1.768372     1.049314     0.328034
9
Iteration 4, Energy=-154.0863281009, |grad|=0.019805
C     -0.969211     0.053445     0.040207
C      0.491693    -0.339449    -0.169597
O      1.355035     0.312665     0.731446
H     -1.317962     0.762525    -0.711517
H     -1.623841    -0.820179    -0.013760
H     -1.095249     0.533216     1.014150
H      0.799524    -0.151887    -1.203281
H      0.607655    -1.413863    -0.014183
H      1.752356     1.063527     0.326535
9
Iteration 0, Energy=-154.0233734980, |grad|=0.535829
C     -1.005000     0.094681     0.010639
C      0.388172    -0.221760    -0.105019
O      1.307628     0.298878     0.653335
H     -1.328726     0.667583    -0.748664
H     -1.671809    -0.808737     0.107523
H     -1.040348     0.519658     0.987509
H      0.860095    -0.209912    -1.318353
H      0.613456    -1.345846     0.026039
H      1.879443     0.948677     0.384185
9
Iteration -1, Energy=-154.0863281009, |grad|=0.019805
C     -0.969211     0.053445     0.040207
C      0.491693    -0.339449    -0.169597
O      1.355035     0.312665     0.731446
H     -1.317962     0.762525    -0.711517
H     -1.623841    -0.820179    -0.013760
H     -1.095249     0.533216     1.014150
H      0.799524    -0.151887    -1.203281
H      0.607655    -1.413863    -0.014183
H      1.752356     1.063527     0.326535
9
Iteration 0, Energy=-154.0864181960, |grad|=0.026360
C     -0.973739     0.056865     0.038188
C      0.494543    -0.340611    -0.168995
O      1.355158     0.306477     0.732479
H     -1.317796     0.765164    -0.713003
H     -1.624087    -0.818925    -0.013094
H     -1.093940     0.527729     1.014485
H      0.798953    -0.151692    -1.203085
H      0.609709    -1.412197    -0.010183
H      1.751199     1.067189     0.323207
9
Iteration 1, Energy=-154.0865155175, |grad|=0.015555
C     -0.973881     0.057293     0.037266
C      0.493912    -0.340773    -0.168957
O      1.357492     0.307167     0.731519
H     -1.317993     0.766916    -0.714035
H     -1.624502    -0.818362    -0.012978
H     -1.093511     0.525440     1.015058
H      0.798879    -0.151702    -1.203036
H      0.610589    -1.411990    -0.008274
H      1.749015     1.066010     0.323436
9
Iteration 2, Energy=-154.0866646141, |grad|=0.011495
C     -0.974536     0.059362     0.033651
C      0.492651    -0.340910    -0.168521
O      1.364038     0.305325     0.729015
H     -1.318572     0.773902    -0.717738
H     -1.626277    -0.815959    -0.012843
H     -1.091780     0.515979     1.017321
H      0.798483    -0.152027    -1.202738
H      0.614096    -1.411021    -0.000242
H      1.741897     1.065348     0.322096
9
Iteration 3, Energy=-154.0867353348, |grad|=0.010806
C     -0.973285     0.060468     0.031431
C      0.492074    -0.341193    -0.168263
O      1.367653     0.302363     0.726813
H     -1.318528     0.779122    -0.719068
H     -1.628001    -0.813683    -0.014200
H     -1.090764     0.508984     1.019219
H      0.798318    -0.153245    -1.202371
H      0.615989    -1.410325     0.006137
H      1.736543     1.067510     0.320302
9
Iteration 4, Energy=-154.0868700267, |grad|=0.014273
C     -0.972566     0.063465     0.028121
C      0.494287    -0.344635    -0.168175
O      1.375511     0.297910     0.719619
H     -1.315762     0.789286    -0.716611
H     -1.631209    -0.806684    -0.021327
H     -1.088682     0.493734     1.023014
H      0.798302    -0.158928    -1.201944
H      0.617708    -1.408978     0.020301
H      1.722409     1.074830     0.317002
9
Iteration 0, Energy=-154.0288861050, |grad|=0.567559
C     -0.907581     0.011799    -0.027202
C      0.418050    -0.263270    -0.136140
O      1.282953     0.246014     0.803195
H     -1.290575     0.717597    -0.688289
H     -1.640572    -0.887628    -0.030312
H     -1.031837     0.540945     0.989974
H      0.697730    -0.232129    -1.238661
H      0.530638    -1.338504    -0.114784
H      1.787625     1.069062     0.348033
9
Iteration -1, Energy=-154.0868700267, |grad|=0.014273
C     -0.972566     0.063465     0.028121
C      0.494287    -0.344635    -0.168175
O      1.375511     0.297910     0.719619
H     -1.315762     0.789286    -0.716611
H     -1.631209    -0.806684    -0.021327
H     -1.088682     0.493734     1.023014
H      0.798302    -0.158928    -1.201944
H      0.617708    -1.408978     0.020301
H      1.722409     1.074830     0.317002
9
Iteration 0, Energy=-154.0869499029, |grad|=0.023998
C     -0.968993     0.061177     0.031068
C      0.493342    -0.343214    -0.168027
O      1.373605     0.296820     0.719891
H     -1.313116     0.789536    -0.711749
H     -1.631514    -0.806235    -0.026696
H     -1.089309     0.495670     1.023827
H      0.799216    -0.163435    -1.203842
H      0.615076    -1.412188     0.019855
H      1.721693     1.081869     0.315673
9
Iteration 1, Energy=-154.0870470516, |grad|=0.014857
C     -0.968112     0.060579     0.032380
C      0.493525    -0.344457    -0.168165
O      1.374200     0.299612     0.718543
H     -1.311215     0.789670    -0.708464
H     -1.631466    -0.805879    -0.030021
H     -1.089599     0.496555     1.024486
H      0.799602    -0.166283    -1.204701
H      0.613318    -1.413178     0.019466
H      1.719746     1.083381     0.316477
9
Iteration 2, Energy=-154.0871875099, |grad|=0.010650
C     -0.966246     0.059010     0.036431
C      0.495713    -0.348312    -0.168611
O      1.374861     0.305733     0.714565
H     -1.304411     0.791170    -0.697606
H     -1.631097    -0.804536    -0.041338
H     -1.090355     0.498555     1.027139
H      0.800426    -0.176559    -1.207021
H      0.607806    -1.416164     0.018845
H      1.713302     1.091103     0.317597
9
Iteration 3, Energy=-154.0872659718, |grad|=0.012421
C     -0.965389     0.058629     0.037743
C      0.496659    -0.349725    -0.168514
O      1.375982     0.307265     0.711926
H     -1.300358     0.795071    -0.693142
H     -1.630832    -0.803715    -0.047396
H     -1.090306     0.497026     1.029523
H      0.800216    -0.183171    -1.207667
H      0.606159    -1.417517     0.020266
H      1.707869     1.096137     0.317261
9
Iteration 4, Energy=-154.0879345582, |grad|=0.032345
C     -0.954722     0.062880     0.046477
C      0.500140    -0.367773    -0.163690
O      1.393081     0.317854     0.683295
H     -1.255817     0.842707    -0.647501
H     -1.628484    -0.793125    -0.110495
H     -1.088388     0.468120     1.054424
H      0.796905    -0.253316    -1.216482
H      0.594281    -1.429024     0.043693
H      1.643003     1.151677     0.310279
9
Iteration 0, Energy=-153.9790646571, |grad|=0.809040
C     -0.865664     0.123479     0.110167
C      0.398538    -0.232113    -0.272830
O      1.218182     0.382065     0.820558
H     -1.368101     0.703938    -0.657613
H     -1.541745    -0.798655     0.079909
H     -0.980779     0.499454     0.949714
H      0.817278    -0.212414    -1.161160
H      0.598933    -1.456857    -0.062353
H      1.882569     1.146850     0.436147
9
Iteration -1, Energy=-154.0879345582, |grad|=0.032345
C     -0.954722     0.062880     0.046477
C      0.500140    -0.367773    -0.163690
O      1.393081     0.317854     0.683295
H     -1.255817     0.842707    -0.647501
H     -1.628484    -0.793125    -0.110495
H     -1.088388     0.468120     1.054424
H      0.796905    -0.253316    -1.216482
H      0.594281    -1.429024     0.043693
H      1.643003     1.151677     0.310279
9
Iteration 0, Energy=-154.0882287152, |grad|=0.026992
C     -0.955042     0.058919     0.044642
C      0.499888    -0.360733    -0.166618
O      1.394771     0.314746     0.681468
H     -1.256325     0.846982    -0.650912
H     -1.626830    -0.787294    -0.108110
H     -1.088065     0.461721     1.053907
H      0.794944    -0.252255    -1.213839
H      0.597679    -1.430832     0.050250
H      1.638980     1.148746     0.309212
9
Iteration 1, Energy=-154.0884518122, |grad|=0.021363
C     -0.954425     0.061247     0.041988
C      0.499606    -0.361499    -0.166045
O      1.396366     0.312239     0.679577
H     -1.256471     0.849500    -0.652612
H     -1.626912    -0.784205    -0.106511
H     -1.087699     0.455006     1.053214
H      0.793591    -0.250600    -1.213385
H      0.600617    -1.428630     0.055618
H      1.635327     1.146943     0.308156
9
Iteration 2, Energy=-154.0886885192, |grad|=0.037733
C     -0.949261     0.069988     0.034862
C      0.499791    -0.367100    -0.167530
O      1.405068     0.299324     0.676932
H     -1.255072     0.863129    -0.658373
H     -1.632055    -0.775026    -0.106852
H     -1.086270     0.429078     1.055204
H      0.788476    -0.247342    -1.214059
H      0.609943    -1.421958     0.079466
H      1.619380     1.149906     0.300350
9
Iteration 3, Energy=-154.0888259896, |grad|=0.025512
C     -0.950662     0.071295     0.032129
C      0.500717    -0.369413    -0.164719
O      1.409283     0.305612     0.670332
H     -1.253285     0.865990    -0.657554
H     -1.632507    -0.771148    -0.108567
H     -1.085546     0.422696     1.056323
H      0.787878    -0.247726    -1.215650
H      0.611295    -1.421020     0.085080
H      1.612826     1.143714     0.302626
9
Iteration 4, Energy=-154.0889089519, |grad|=0.010397
C     -0.951083     0.069786     0.034125
C      0.501060    -0.368089    -0.164991
O      1.407199     0.304803     0.671862
H     -1.252947     0.864174    -0.656014
H     -1.632240    -0.772877    -0.109783
H     -1.085762     0.426912     1.056371
H      0.788738    -0.249177    -1.215591
H      0.609459    -1.422589     0.081614
H      1.615575     1.147057     0.302407
9
Iteration 0, Energy=-154.0026241341, |grad|=0.940170
C     -0.987446    -0.002233     0.093549
C      0.516310    -0.296105    -0.092500
O      1.207489     0.302553     0.653548
H     -1.265485     0.732010    -0.699740
H     -1.544483    -0.955039    -0.006425
H     -1.127640     0.574493     1.083158
H      0.740205    -0.172148    -1.320418
H      0.546382    -1.437068     0.011177
H      1.765924     1.139959     0.428676
9
Iteration -1, Energy=-154.0889089519, |grad|=0.010397
C     -0.951083     0.069786     0.034125
C      0.501060    -0.368089    -0.164991
O      1.407199     0.304803     0.671862
H     -1.252947     0.864174    -0.656014
H     -1.632240    -0.772877    -0.109783
H     -1.085762     0.426912     1.056371
H      0.788738    -0.249177    -1.215591
H      0.609459    -1.422589     0.081614
H      1.615575     1.147057     0.302407
9
Iteration 0, Energy=-154.0889789616, |grad|=0.022953
C     -0.951175     0.067619     0.036628
C      0.501645    -0.366182    -0.164979
O      1.406460     0.303759     0.668775
H     -1.248757     0.865263    -0.650395
H     -1.632442    -0.770739    -0.116483
H     -1.085485     0.426264     1.057394
H      0.789216    -0.255176    -1.215097
H      0.607631    -1.425150     0.082848
H      1.612908     1.154341     0.301308
9
Iteration 1, Energy=-154.0890799686, |grad|=0.016298
C     -0.950622     0.066903     0.037904
C      0.501357    -0.367366    -0.164720
O      1.407400     0.306531     0.665806
H     -1.245694     0.866364    -0.646220
H     -1.632887    -0.769578    -0.121505
H     -1.085383     0.425494     1.058562
H      0.789533    -0.259518    -1.215138
H      0.606237    -1.425909     0.083631
H      1.610058     1.157079     0.301681
9
Iteration 2, Energy=-154.0893279354, |grad|=0.015040
C     -0.946837     0.064367     0.042812
C      0.500718    -0.374148    -0.163542
O      1.411823     0.316111     0.653885
H     -1.231153     0.874117    -0.627317
H     -1.635413    -0.764325    -0.145274
H     -1.085197     0.419944     1.065353
H      0.790083    -0.280588    -1.215930
H      0.600491    -1.428371     0.088836
H      1.595486     1.172894     0.301179
9
Iteration 3, Energy=-154.0895194540, |grad|=0.020307
C     -0.944589     0.062727     0.044954
C      0.502229    -0.376885    -0.163430
O      1.416292     0.321893     0.645716
H     -1.220267     0.884667    -0.615524
H     -1.636463    -0.758938    -0.161663
H     -1.085310     0.411287     1.071139
H      0.788550    -0.296744    -1.217055
H      0.598500    -1.430909     0.096498
H      1.581058     1.182902     0.299365
9
Iteration 4, Energy=-154.0902686462, |grad|=0.035122
C     -0.930943     0.062666     0.052642
C      0.510630    -0.396736    -0.158150
O      1.440755     0.346467     0.600617
H     -1.159279     0.946921    -0.550861
H     -1.641367    -0.727735    -0.250054
H     -1.086309     0.353872     1.101761
H      0.778113    -0.385076    -1.225996
H      0.592104    -1.440291     0.144449
H      1.496295     1.239912     0.285592
9
Iteration 0, Energy=-154.0516522422, |grad|=0.372485
C     -0.944226     0.030911     0.096976
C      0.459957    -0.323523    -0.218238
O      1.350762     0.394783     0.706080
H     -1.294510     0.668954    -0.787460
H     -1.581419    -0.944065     0.120833
H     -1.150485     0.507270     1.104881
H      0.756386    -0.061501    -1.259380
H      0.513573    -1.526047    -0.007739
H      1.749019     1.120280     0.387315
9
Iteration -1, Energy=-154.0902686462, |grad|=0.035122
C     -0.930943     0.062666     0.052642
C      0.510630    -0.396736    -0.158150
O      1.440755     0.346467     0.600617
H     -1.159279     0.946921    -0.550861
H     -1.641367    -0.727735    -0.250054
H     -1.086309     0.353872     1.101761
H      0.778113    -0.385076    -1.225996
H      0.592104    -1.440291     0.144449
H      1.496295     1.239912     0.285592
9
Iteration 0, Energy=-154.0908939526, |grad|=0.027020
C     -0.933232     0.067181     0.047306
C      0.510518    -0.391851    -0.160443
O      1.436716     0.339868     0.595994
H     -1.158590     0.947621    -0.551236
H     -1.633798    -0.717626    -0.242212
H     -1.087198     0.341715     1.094880
H      0.774675    -0.381509    -1.221426
H      0.599723    -1.437524     0.153597
H      1.491186     1.232126     0.283540
9
Iteration 1, Energy=-154.0912333381, |grad|=0.015511
C     -0.926080     0.073231     0.043692
C      0.504732    -0.395801    -0.158627
O      1.435607     0.335098     0.593327
H     -1.159289     0.953370    -0.554476
H     -1.630182    -0.710925    -0.235930
H     -1.088985     0.327343     1.089327
H      0.771489    -0.376780    -1.221184
H      0.608039    -1.429416     0.163406
H      1.484668     1.223881     0.280465
9
Iteration 2, Energy=-154.0913111146, |grad|=0.016609
C     -0.924448     0.073822     0.041918
C      0.506836    -0.395474    -0.160338
O      1.437163     0.330947     0.595295
H     -1.158840     0.959375    -0.557004
H     -1.631017    -0.709660    -0.235817
H     -1.090097     0.321346     1.091473
H      0.769013    -0.375679    -1.222102
H      0.610782    -1.428523     0.169787
H      1.480608     1.223847     0.276789
9
Iteration 3, Energy=-154.0913631954, |grad|=0.007699
C     -0.925039     0.074586     0.041549
C      0.508577    -0.396338    -0.160122
O      1.438637     0.333040     0.595176
H     -1.157998     0.961579    -0.557243
H     -1.632048    -0.709726    -0.237197
H     -1.090348     0.319246     1.093022
H      0.768261    -0.375770    -1.223462
H      0.611109    -1.428654     0.172122
H      1.478849     1.222036     0.276156
9
Iteration 4, Energy=-154.0913906250, |grad|=0.007264
C     -0.925764     0.075410     0.041692
C      0.509873    -0.397021    -0.159112
O      1.439982     0.334168     0.594717
H     -1.156555     0.963415    -0.556566
H     -1.633097    -0.709472    -0.239492
H     -1.090497     0.316915     1.094215
H      0.767779    -0.376344    -1.224978
H      0.611281    -1.428923     0.174544
H      1.476999     1.221852     0.274979
9
Iteration 0, Energy=-153.9728903695, |grad|=1.135419
C     -0.873905    -0.013351     0.033506
C      0.473841    -0.266760    -0.157624
O      1.272977     0.394870     0.644680
H     -1.296627     0.651564    -0.825683
H     -1.657298    -0.956679    -0.018570
H     -1.044444     0.693212     0.920346
H      0.801861    -0.173801    -1.313756
H      0.501642    -1.377992    -0.136052
H      1.760618     0.959446     0.453595
9
Iteration -1, Energy=-154.0913906250, |grad|=0.007264
C     -0.925764     0.075410     0.041692
C      0.509873    -0.397021    -0.159112
O      1.439982     0.334168     0.594717
H     -1.156555     0.963415    -0.556566
H     -1.633097    -0.709472    -0.239492
H     -1.090497     0.316915     1.094215
H      0.767779    -0.376344    -1.224978
H      0.611281    -1.428923     0.174544
H      1.476999     1.221852     0.274979
9
Iteration 0, Energy=-154.0914223721, |grad|=0.016537
C     -0.925512     0.074006     0.043306
C      0.507270    -0.396375    -0.158457
O      1.440202     0.333119     0.592075
H     -1.153180     0.963134    -0.551954
H     -1.632666    -0.706509    -0.244295
H     -1.090637     0.314645     1.093524
H      0.768164    -0.379115    -1.223442
H      0.610880    -1.429494     0.176399
H      1.475479     1.226588     0.272845
9
Iteration 1, Energy=-154.0914682519, |grad|=0.010123
C     -0.925383     0.073590     0.043722
C      0.506650    -0.397213    -0.158079
O      1.440525     0.335323     0.589904
H     -1.151270     0.963383    -0.549392
H     -1.632689    -0.705111    -0.247164
H     -1.090890     0.313242     1.093838
H      0.768125    -0.380740    -1.222661
H      0.610502    -1.429406     0.177405
H      1.474429     1.226931     0.272427
9
Iteration 2, Energy=-154.0915478200, |grad|=0.012005
C     -0.924740     0.072058     0.045060
C      0.505831    -0.399422    -0.156831
O      1.441327     0.340472     0.583282
H     -1.144579     0.965303    -0.540778
H     -1.633159    -0.700525    -0.257405
H     -1.092024     0.307969     1.095642
H      0.767594    -0.386736    -1.220223
H      0.609334    -1.429281     0.181429
H      1.470416     1.230162     0.269824
9
Iteration 3, Energy=-154.0916355192, |grad|=0.016723
C     -0.923616     0.070309     0.046588
C      0.506387    -0.401682    -0.155424
O      1.442517     0.345581     0.576380
H     -1.136330     0.969761    -0.530830
H     -1.634284    -0.695349    -0.270260
H     -1.093903     0.300493     1.098874
H      0.766289    -0.394699    -1.218190
H      0.608294    -1.429363     0.187317
H      1.464648     1.234948     0.265544
9
Iteration 4, Energy=-154.0918804800, |grad|=0.023599
C     -0.920526     0.066664     0.050879
C      0.508543    -0.407814    -0.150843
O      1.447672     0.360003     0.558048
H     -1.110604     0.987488    -0.500843
H     -1.637172    -0.678949    -0.309264
H     -1.100735     0.273690     1.108883
H      0.761173    -0.420669    -1.215171
H      0.607219    -1.430027     0.208118
H      1.444430     1.249615     0.250191
9
Iteration 0, Energy=-154.0032220312, |grad|=0.761512
C     -0.858593     0.122130     0.017464
C      0.418118    -0.256762    -0.100554
O      1.235131     0.297080     0.678204
H     -1.419474     0.775462    -0.793239
H     -1.577005    -0.914316     0.000726
H     -1.155885     0.516133     1.053357
H      0.708909    -0.171601    -1.188072
H      0.511910    -1.345413    -0.142987
H      1.782522     1.010707     0.309458
9
Iteration -1, Energy=-154.0918804800, |grad|=0.023599
C     -0.920526     0.066664     0.050879
C      0.508543    -0.407814    -0.150843
O      1.447672     0.360003     0.558048
H     -1.110604     0.987488    -0.500843
H     -1.637172    -0.678949    -0.309264
H     -1.100735     0.273690     1.108883
H      0.761173    -0.420669    -1.215171
H      0.607219    -1.430027     0.208118
H      1.444430     1.249615     0.250191
9
Iteration 0, Energy=-154.0919655475, |grad|=0.018392
C     -0.920668     0.067471     0.050497
C      0.509466    -0.405858    -0.151157
O      1.447449     0.354767     0.560641
H     -1.110778     0.989854    -0.501539
H     -1.636345    -0.678328    -0.308027
H     -1.101478     0.271399     1.108441
H      0.760368    -0.421364    -1.216509
H      0.608922    -1.430272     0.209891
H      1.443064     1.252332     0.247761
9
Iteration 1, Energy=-154.0920162391, |grad|=0.012822
C     -0.920519     0.068365     0.050103
C      0.509630    -0.406128    -0.151242
O      1.447571     0.355560     0.561088
H     -1.110898     0.991192    -0.501804
H     -1.635899    -0.678034    -0.307374
H     -1.101975     0.269956     1.108252
H      0.759909    -0.421716    -1.217278
H      0.609825    -1.429933     0.210717
H      1.442357     1.250737     0.247537
9
Iteration 2, Energy=-154.0921305251, |grad|=0.006788
C     -0.919334     0.073102     0.047828
C      0.510904    -0.406817    -0.151620
O      1.447490     0.356195     0.563792
H     -1.111442     0.998607    -0.502908
H     -1.633454    -0.676234    -0.304077
H     -1.104811     0.261859     1.107288
H      0.757374    -0.423821    -1.220910
H      0.614910    -1.427953     0.215495
H      1.438363     1.245061     0.245113
9
Iteration 3, Energy=-154.0921535091, |grad|=0.004914
C     -0.918131     0.074295     0.047086
C      0.511057    -0.407189    -0.151788
O      1.446644     0.355414     0.563276
H     -1.111176     1.001420    -0.502027
H     -1.632466    -0.674906    -0.304091
H     -1.106052     0.258399     1.106929
H      0.756616    -0.425086    -1.220615
H      0.616687    -1.426657     0.217602
H      1.436820     1.244310     0.243629
9
Iteration 4, Energy=-154.0921869467, |grad|=0.005945
C     -0.917679     0.075444     0.046422
C      0.510520    -0.406914    -0.151401
O      1.446229     0.355150     0.561198
H     -1.109340     1.006018    -0.498128
H     -1.630605    -0.671454    -0.306701
H     -1.108044     0.251698     1.106258
H      0.755917    -0.428574    -1.220121
H      0.619193    -1.425472     0.222232
H      1.433809     1.244106     0.240242
9
Iteration 0, Energy=-154.0516460191, |grad|=0.389001
C     -1.021384    -0.003457     0.002626
C      0.532927    -0.339616    -0.235805
O      1.257476     0.402928     0.660464
H     -1.415540     0.641891    -0.807653
H     -1.505300    -0.910209    -0.016854
H     -1.033881     0.604125     0.937609
H      0.754766    -0.068370    -1.177490
H      0.586444    -1.373220    -0.139494
H      1.799610     1.093851     0.487704
9
Iteration -1, Energy=-154.0921869467, |grad|=0.005945
C     -0.917679     0.075444     0.046422
C      0.510520    -0.406914    -0.151401
O      1.446229     0.355150     0.561198
H     -1.109340     1.006018    -0.498128
H     -1.630605    -0.671454    -0.306701
H     -1.108044     0.251698     1.106258
H      0.755917    -0.428574    -1.220121
H      0.619193    -1.425472     0.222232
H      1.433809     1.244106     0.240242
9
Iteration 0, Energy=-154.0922042526, |grad|=0.008397
C     -0.917227     0.075589     0.047145
C      0.510715    -0.408954    -0.151079
O      1.447089     0.357086     0.560208
H     -1.108316     1.005871    -0.496100
H     -1.631910    -0.671735    -0.309939
H     -1.108223     0.251453     1.107308
H      0.756138    -0.429584    -1.219645
H      0.617968    -1.424999     0.222409
H      1.433767     1.245274     0.239692
9
Iteration 1, Energy=-154.0922236261, |grad|=0.006312
C     -0.917371     0.074554     0.047635
C      0.510987    -0.408882    -0.150871
O      1.447635     0.357661     0.559337
H     -1.107262     1.006084    -0.494296
H     -1.632527    -0.671258    -0.312635
H     -1.108401     0.251059     1.108187
H      0.756312    -0.430721    -1.219209
H      0.617057    -1.425415     0.223057
H      1.433570     1.246919     0.238795
9
Iteration 2, Energy=-154.0922594988, |grad|=0.007183
C     -0.918537     0.070910     0.049219
C      0.511544    -0.408146    -0.149548
O      1.449357     0.361762     0.554956
H     -1.102910     1.007146    -0.486927
H     -1.633760    -0.668245    -0.322453
H     -1.109287     0.248258     1.110710
H      0.756871    -0.435474    -1.217877
H      0.614250    -1.427039     0.226184
H      1.432472     1.250828     0.235736
9
Iteration 3, Energy=-154.0922843093, |grad|=0.009941
C     -0.918420     0.070867     0.050107
C      0.511334    -0.408869    -0.148564
O      1.449781     0.362241     0.552617
H     -1.099780     1.008457    -0.481447
H     -1.633775    -0.665557    -0.328472
H     -1.110550     0.244063     1.111288
H      0.756734    -0.439126    -1.216965
H      0.613734    -1.426605     0.229126
H      1.430943     1.254528     0.232311
9
Iteration 4, Energy=-154.0923184009, |grad|=0.010952
C     -0.918005     0.070831     0.050565
C      0.510838    -0.409409    -0.147964
O      1.449927     0.363773     0.550176
H     -1.096866     1.010653    -0.476502
H     -1.633119    -0.662413    -0.333476
H     -1.112135     0.239083     1.111605
H      0.756248    -0.442765    -1.216093
H      0.613967    -1.425986     0.232469
H      1.429144     1.256233     0.229220
9
Iteration 0, Energy=-154.0306663298, |grad|=0.435388
C     -1.026538    -0.019406     0.023372
C      0.403046    -0.238717    -0.173884
O      1.360514     0.293529     0.807033
H     -1.265518     0.725991    -0.655433
H     -1.650592    -0.921221    -0.031354
H     -1.138553     0.570413     0.995975
H      0.734716    -0.046688    -1.308991
H      0.574076    -1.524817    -0.007801
H      1.814333     1.133878     0.417996
9
Iteration -1, Energy=-154.0923184009, |grad|=0.010952
C     -0.918005     0.070831     0.050565
C      0.510838    -0.409409    -0.147964
O      1.449927     0.363773     0.550176
H     -1.096866     1.010653    -0.476502
H     -1.633119    -0.662413    -0.333476
H     -1.112135     0.239083     1.111605
H      0.756248    -0.442765    -1.216093
H      0.613967    -1.425986     0.232469
H      1.429144     1.256233     0.229220
9
Iteration 0, Energy=-154.0923372557, |grad|=0.006218
C     -0.917660     0.070938     0.050276
C      0.510809    -0.409729    -0.148141
O      1.449828     0.365252     0.549865
H     -1.096863     1.011556    -0.476620
H     -1.632838    -0.662132    -0.333224
H     -1.112494     0.238272     1.111666
H      0.755937    -0.442962    -1.216136
H      0.614416    -1.425686     0.232887
H      1.428866     1.254491     0.229427
9
Iteration 1, Energy=-154.0923491176, |grad|=0.006308
C     -0.917286     0.071279     0.049958
C      0.510952    -0.409788    -0.148250
O      1.449563     0.365372     0.549916
H     -1.096796     1.012674    -0.476678
H     -1.632484    -0.661766    -0.332944
H     -1.112963     0.237099     1.111643
H      0.755524    -0.443282    -1.216245
H      0.615097    -1.425321     0.233546
H      1.428393     1.253733     0.229055
9
Iteration 2, Energy=-154.0923857216, |grad|=0.005562
C     -0.915977     0.073971     0.048798
C      0.511432    -0.410218    -0.148301
O      1.448504     0.364895     0.550442
H     -1.096021     1.017712    -0.476145
H     -1.630755    -0.659851    -0.332191
H     -1.115233     0.230780     1.110987
H      0.753622    -0.445165    -1.217087
H      0.618571    -1.423495     0.237081
H      1.425859     1.251370     0.226417
9
Iteration 3, Energy=-154.0923991748, |grad|=0.009784
C     -0.916030     0.073236     0.048359
C      0.510783    -0.409060    -0.148291
O      1.448808     0.365226     0.549719
H     -1.094024     1.021412    -0.473348
H     -1.629402    -0.656919    -0.334540
H     -1.117007     0.225869     1.111009
H      0.752675    -0.447739    -1.216867
H      0.620330    -1.423432     0.240701
H      1.423868     1.251407     0.223257
9
Iteration 4, Energy=-154.0924204014, |grad|=0.006977
C     -0.915825     0.074290     0.048428
C      0.510880    -0.409773    -0.147648
O      1.448769     0.365526     0.548940
H     -1.092605     1.023164    -0.471019
H     -1.629116    -0.655587    -0.336719
H     -1.118141     0.222615     1.110922
H      0.752126    -0.449398    -1.216774
H      0.621219    -1.422668     0.242718
H      1.422692     1.251831     0.221152
9
Iteration 0, Energy=-154.0266760065, |grad|=0.459620
C     -0.986456     0.145440     0.058193
C      0.450098    -0.225666    -0.102215
O      1.277402     0.403326     0.710279
H     -1.419273     0.805305    -0.728253
H     -1.612308    -0.961533     0.009572
H     -0.990475     0.670613     1.013227
H      0.848585    -0.217025    -1.311237
H      0.528247    -1.381117    -0.133476
H      1.925031     1.087568     0.381966
9
Iteration -1, Energy=-154.0924204014, |grad|=0.006977
C     -0.915825     0.074290     0.048428
C      0.510880    -0.409773    -0.147648
O      1.448769     0.365526     0.548940
H     -1.092605     1.023164    -0.471019
H     -1.629116    -0.655587    -0.336719
H     -1.118141     0.222615     1.110922
H      0.752126    -0.449398    -1.216774
H      0.621219    -1.422668     0.242718
H      1.422692     1.251831     0.221152
9
Iteration 0, Energy=-154.0924288808, |grad|=0.007279
C     -0.915481     0.075731     0.049090
C      0.511569    -0.411622    -0.146884
O      1.448602     0.366366     0.548014
H     -1.092093     1.022332    -0.469703
H     -1.630074    -0.656083    -0.338511
H     -1.118230     0.222468     1.111077
H      0.752276    -0.449711    -1.216502
H      0.620550    -1.421928     0.242483
H      1.422881     1.252447     0.220936
9
Iteration 1, Energy=-154.0924366356, |grad|=0.004138
C     -0.915565     0.074939     0.049097
C      0.511465    -0.411062    -0.147045
O      1.448735     0.366317     0.547910
H     -1.091897     1.022510    -0.469429
H     -1.630010    -0.655749    -0.338914
H     -1.118304     0.222443     1.111290
H      0.752305    -0.449937    -1.216320
H      0.620419    -1.422277     0.242718
H      1.422853     1.252815     0.220692
9
Iteration 2, Energy=-154.0924484031, |grad|=0.003520
C     -0.915718     0.073461     0.049414
C      0.511400    -0.410573    -0.147011
O      1.449108     0.367007     0.547050
H     -1.091010     1.022625    -0.467860
H     -1.630233    -0.654936    -0.341030
H     -1.118594     0.222154     1.111953
H      0.752471    -0.450811    -1.215747
H      0.619734    -1.422830     0.243316
H      1.422842     1.253903     0.219915
9
Iteration 3, Energy=-154.0924613702, |grad|=0.005005
C     -0.915960     0.071946     0.050098
C      0.511380    -0.410581    -0.146551
O      1.449686     0.368429     0.545454
H     -1.089320     1.022684    -0.464777
H     -1.630713    -0.653626    -0.344958
H     -1.119190     0.221176     1.112881
H      0.752725    -0.452456    -1.214938
H      0.618655    -1.423301     0.244385
H      1.422738     1.255729     0.218406
9
Iteration 4, Energy=-154.0924828276, |grad|=0.006258
C     -0.916153     0.070709     0.051011
C      0.511184    -0.410940    -0.145775
O      1.450380     0.371200     0.542907
H     -1.086236     1.024025    -0.459386
H     -1.630857    -0.650841    -0.351176
H     -1.120824     0.217478     1.113925
H      0.752638    -0.455790    -1.213900
H      0.617969    -1.423445     0.247155
H      1.421899     1.257604     0.215238
9
Iteration 0, Energy=-154.0063289158, |grad|=0.819170
C     -0.916094     0.073263     0.033846
C      0.507400    -0.239524    -0.129402
O      1.281255     0.243619     0.661935
H     -1.289453     0.751116    -0.682601
H     -1.574721    -0.931308     0.046763
H     -1.000941     0.510538     0.925907
H      0.873806    -0.144196    -1.305246
H      0.667745    -1.438680     0.027183
H      1.857234     1.008402     0.428972
9
Iteration -1, Energy=-154.0924828276, |grad|=0.006258
C     -0.916153     0.070709     0.051011
C      0.511184    -0.410940    -0.145775
O      1.450380     0.371200     0.542907
H     -1.086236     1.024025    -0.459386
H     -1.630857    -0.650841    -0.351176
H     -1.120824     0.217478     1.113925
H      0.752638    -0.455790    -1.213900
H      0.617969    -1.423445     0.247155
H      1.421899     1.257604     0.215238
9
Iteration 0, Energy=-154.0924914177, |grad|=0.004285
C     -0.915889     0.072267     0.050998
C      0.511537    -0.412048    -0.145191
O      1.450021     0.370853     0.542918
H     -1.086102     1.024275    -0.459046
H     -1.630899    -0.650942    -0.351297
H     -1.121111     0.216478     1.113658
H      0.752424    -0.455999    -1.214159
H      0.618387    -1.422561     0.247364
H      1.421632     1.257677     0.214757
9
Iteration 1, Energy=-154.0924966718, |grad|=0.003838
C     -0.915729     0.072559     0.050895
C      0.511550    -0.412050    -0.145227
O      1.449888     0.370872     0.542930
H     -1.085957     1.024934    -0.458883
H     -1.630677    -0.650657    -0.351303
H     -1.121421     0.215608     1.113557
H      0.752193    -0.456293    -1.214189
H      0.618810    -1.422345     0.247849
H      1.421342     1.257372     0.214371
9
Iteration 2, Energy=-154.0925117496, |grad|=0.012155
C     -0.915212     0.074189     0.049212
C      0.511452    -0.411700    -0.144175
O      1.449165     0.369949     0.542772
H     -1.083353     1.031836    -0.455079
H     -1.628087    -0.646343    -0.353437
H     -1.124944     0.205842     1.113227
H      0.750072    -0.460321    -1.214784
H      0.622789    -1.420341     0.253697
H      1.418118     1.256889     0.208567
9
Iteration 3, Energy=-154.0925304910, |grad|=0.005771
C     -0.914606     0.075152     0.049782
C      0.511359    -0.412333    -0.144590
O      1.449136     0.372520     0.541789
H     -1.082396     1.033662    -0.453490
H     -1.627916    -0.645424    -0.355043
H     -1.126022     0.202927     1.112878
H      0.749465    -0.461642    -1.214341
H      0.623605    -1.419811     0.255462
H      1.417374     1.254950     0.207552
9
Iteration 4, Energy=-154.0925384292, |grad|=0.004184
C     -0.914712     0.074723     0.050124
C      0.511426    -0.412315    -0.144537
O      1.449323     0.372581     0.541493
H     -1.082198     1.033102    -0.452971
H     -1.628295    -0.645484    -0.355909
H     -1.125891     0.203445     1.113081
H      0.749695    -0.461693    -1.214057
H      0.623042    -1.420077     0.255306
H      1.417610     1.255719     0.207470
9
Iteration 0, Energy=-154.0534028704, |grad|=0.349132
C     -0.927433     0.020955     0.048711
C      0.536581    -0.310966    -0.173281
O      1.274935     0.309066     0.712842
H     -1.318709     0.766781    -0.676874
H     -1.655768    -0.857767    -0.063087
H     -0.989004     0.684228     0.955752
H      0.861726    -0.044692    -1.303015
H      0.533609    -1.468341     0.025696
H      1.798280     1.016494     0.334386
9
Iteration -1, Energy=-154.0925384292, |grad|=0.004184
C     -0.914712     0.074723     0.050124
C      0.511426    -0.412315    -0.144537
O      1.449323     0.372581     0.541493
H     -1.082198     1.033102    -0.452971
H     -1.628295    -0.645484    -0.355909
H     -1.125891     0.203445     1.113081
H      0.749695    -0.461693    -1.214057
H      0.623042    -1.420077     0.255306
H      1.417610     1.255719     0.207470
9
Iteration 0, Energy=-154.0925450260, |grad|=0.007916
C     -0.914686     0.073938     0.050500
C      0.511879    -0.412400    -0.143995
O      1.449369     0.371949     0.540730
H     -1.081488     1.032435    -0.451292
H     -1.628972    -0.645180    -0.358218
H     -1.126040     0.203670     1.113778
H      0.750005    -0.462228    -1.213410
H      0.622064    -1.420245     0.255428
H      1.417869     1.258060     0.206478
9
Iteration 1, Energy=-154.0925538940, |grad|=0.004149
C     -0.914748     0.073471     0.050745
C      0.511822    -0.412575    -0.143918
O      1.449578     0.372979     0.540116
H     -1.081128     1.032243    -0.450506
H     -1.629180    -0.644928    -0.359276
H     -1.126132     0.203669     1.114026
H      0.750143    -0.462524    -1.213119
H      0.621635    -1.420387     0.255550
H      1.418011     1.258053     0.206383
9
Iteration 2, Energy=-154.0925622955, |grad|=0.002684
C     -0.914999     0.072204     0.051423
C      0.511725    -0.412791    -0.143624
O      1.450115     0.374812     0.538694
H     -1.080025     1.031785    -0.448170
H     -1.629692    -0.644100    -0.362323
H     -1.126460     0.203446     1.114688
H      0.750507    -0.463481    -1.212357
H      0.620536    -1.420811     0.256064
H      1.418295     1.258936     0.205606
9
Iteration 3, Energy=-154.0925664172, |grad|=0.002999
C     -0.915212     0.071863     0.051701
C      0.511574    -0.412841    -0.143411
O      1.450382     0.375491     0.538177
H     -1.079325     1.031933    -0.446830
H     -1.629699    -0.643418    -0.363830
H     -1.126834     0.202659     1.114877
H      0.750571    -0.464216    -1.212158
H      0.620318    -1.420915     0.256682
H      1.418224     1.259443     0.204791
9
Iteration 4, Energy=-154.0925926087, |grad|=0.005756
C     -0.915417     0.070620     0.053132
C      0.511467    -0.413674    -0.141781
O      1.451092     0.379788     0.534304
H     -1.074374     1.034729    -0.437403
H     -1.629670    -0.638522    -0.374263
H     -1.130360     0.195197     1.116414
H      0.750296    -0.469840    -1.210524
H      0.619748    -1.420549     0.261816
H      1.417217     1.262251     0.198304
9
Iteration 0, Energy=-154.0381451025, |grad|=0.462325
C     -0.879050     0.140720    -0.002755
C      0.479555    -0.395934    -0.230741
O      1.266382     0.373231     0.772515
H     -1.323273     0.791643    -0.659172
H     -1.607308    -0.894225    -0.024613
H     -1.120717     0.500480     1.079218
H      0.725616    -0.057076    -1.248066
H      0.591452    -1.395584     0.005559
H      1.763139     1.142604     0.360833
9
Iteration -1, Energy=-154.0925926087, |grad|=0.005756
C     -0.915417     0.070620     0.053132
C      0.511467    -0.413674    -0.141781
O      1.451092     0.379788     0.534304
H     -1.074374     1.034729    -0.437403
H     -1.629670    -0.638522    -0.374263
H     -1.130360     0.195197     1.116414
H      0.750296    -0.469840    -1.210524
H      0.619748    -1.420549     0.261816
H      1.417217     1.262251     0.198304
9
Iteration 0, Energy=-154.0925995258, |grad|=0.005748
C     -0.915156     0.070903     0.052798
C      0.511779    -0.413379    -0.141799
O      1.450666     0.378288     0.534751
H     -1.074376     1.035645    -0.437504
H     -1.629358    -0.638266    -0.373876
H     -1.130725     0.194237     1.116311
H      0.749943    -0.470044    -1.210511
H      0.620382    -1.420185     0.262321
H      1.416846     1.262801     0.197510
9
Iteration 1, Energy=-154.0926052399, |grad|=0.004183
C     -0.914977     0.071221     0.052627
C      0.511808    -0.413465    -0.141822
O      1.450496     0.378414     0.534776
H     -1.074357     1.036255    -0.437522
H     -1.629148    -0.638100    -0.373658
H     -1.130979     0.193519     1.116179
H      0.749714    -0.470193    -1.210545
H      0.620804    -1.419905     0.262656
H      1.416639     1.262254     0.197309
9
Iteration 2, Energy=-154.0926178117, |grad|=0.001940
C     -0.914320     0.072959     0.051967
C      0.511742    -0.413606    -0.141837
O      1.449870     0.378533     0.535133
H     -1.074066     1.039199    -0.437239
H     -1.628089    -0.637134    -0.372911
H     -1.132268     0.189683     1.115338
H      0.748636    -0.471118    -1.210863
H      0.622971    -1.418705     0.264590
H      1.415525     1.260189     0.195822
9
Iteration 3, Energy=-154.0926211707, |grad|=0.002114
C     -0.914498     0.073054     0.051843
C      0.511695    -0.413697    -0.141587
O      1.449967     0.378810     0.534991
H     -1.073635     1.039915    -0.436389
H     -1.627838    -0.636511    -0.373599
H     -1.132736     0.188444     1.115303
H      0.748450    -0.471653    -1.210884
H      0.623314    -1.418490     0.265380
H      1.415280     1.260127     0.194943
9
Iteration 4, Energy=-154.0926470447, |grad|=0.004506
C     -0.914897     0.073947     0.052050
C      0.511473    -0.414305    -0.139766
O      1.450648     0.381852     0.532734
H     -1.069075     1.046394    -0.427070
H     -1.626605    -0.630902    -0.382411
H     -1.137515     0.176597     1.115188
H      0.746812    -0.477190    -1.209986
H      0.625901    -1.416824     0.273263
H      1.413258     1.260431     0.185998
9
Iteration 0, Energy=-153.9921973155, |grad|=0.979002
C     -0.978682    -0.045868     0.075761
C      0.573828    -0.278839    -0.220622
O      1.316298     0.330709     0.675655
H     -1.360234     0.705372    -0.655032
H     -1.556888    -0.777966     0.030468
H     -1.076168     0.579887     1.100258
H      0.763300    -0.190235    -1.176402
H      0.624917    -1.473649    -0.140771
H      1.735826     0.967433     0.415668
9
Iteration -1, Energy=-154.0926470447, |grad|=0.004506
C     -0.914897     0.073947     0.052050
C      0.511473    -0.414305    -0.139766
O      1.450648     0.381852     0.532734
H     -1.069075     1.046394    -0.427070
H     -1.626605    -0.630902    -0.382411
H     -1.137515     0.176597     1.115188
H      0.746812    -0.477190    -1.209986
H      0.625901    -1.416824     0.273263
H      1.413258     1.260431     0.185998
9
Iteration 0, Energy=-154.0926546335, |grad|=0.003130
C     -0.913746     0.073334     0.052426
C      0.512084    -0.414310    -0.139845
O      1.449845     0.381741     0.531721
H     -1.068938     1.046054    -0.426432
H     -1.627222    -0.630937    -0.383647
H     -1.137811     0.176956     1.115844
H      0.746917    -0.477375    -1.208958
H      0.625193    -1.416698     0.273040
H      1.413677     1.261235     0.185852
9
Iteration 1, Energy=-154.0926585528, |grad|=0.002617
C     -0.913814     0.072596     0.052625
C      0.512060    -0.414508    -0.139736
O      1.449823     0.382537     0.531034
H     -1.068622     1.045561    -0.425635
H     -1.627261    -0.630502    -0.384638
H     -1.137960     0.177163     1.116215
H      0.747153    -0.477672    -1.208525
H      0.624584    -1.416740     0.272905
H      1.414037     1.261565     0.185755
9
Iteration 2, Energy=-154.0926625154, |grad|=0.001781
C     -0.914262     0.071672     0.053142
C      0.511804    -0.414521    -0.139486
O      1.450076     0.383179     0.530384
H     -1.067944     1.044650    -0.424110
H     -1.627289    -0.629743    -0.386428
H     -1.138197     0.177272     1.116616
H      0.747597    -0.478332    -1.208102
H      0.623688    -1.417034     0.272889
H      1.414528     1.262857     0.185095
9
Iteration 3, Energy=-154.0926641938, |grad|=0.002847
C     -0.914335     0.071855     0.053728
C      0.511595    -0.414464    -0.139232
O      1.450382     0.384184     0.530044
H     -1.067314     1.044510    -0.422829
H     -1.627571    -0.629461    -0.388038
H     -1.138616     0.176570     1.116796
H      0.747761    -0.479081    -1.208122
H      0.623378    -1.417318     0.273332
H      1.414721     1.263206     0.184321
9
Iteration 4, Energy=-154.0926663637, |grad|=0.002174
C     -0.914570     0.071738     0.053739
C      0.511650    -0.414440    -0.139058
O      1.450508     0.384397     0.530019
H     -1.066977     1.044882    -0.422202
H     -1.627493    -0.629109    -0.388704
H     -1.138949     0.175909     1.116967
H      0.747718    -0.479524    -1.208155
H      0.623395    -1.417321     0.273727
H      1.414719     1.263468     0.183666
9
Iteration 0, Energy=-154.0445534929, |grad|=0.466181
C     -0.989549     0.012477     0.103309
C      0.437927    -0.366904    -0.134035
O      1.314405     0.404893     0.787154
H     -1.300200     0.645845    -0.770409
H     -1.636704    -0.831820     0.113375
H     -1.039849     0.679573     1.100875
H      0.880774    -0.094526    -1.263808
H      0.587956    -1.337157    -0.079633
H      1.837153     1.019647     0.373746
9
Iteration -1, Energy=-154.0926663637, |grad|=0.002174
C     -0.914570     0.071738     0.053739
C      0.511650    -0.414440    -0.139058
O      1.450508     0.384397     0.530019
H     -1.066977     1.044882    -0.422202
H     -1.627493    -0.629109    -0.388704
H     -1.138949     0.175909     1.116967
H      0.747718    -0.479524    -1.208155
H      0.623395    -1.417321     0.273727
H      1.414719     1.263468     0.183666
9
Iteration 0, Energy=-154.0926678285, |grad|=0.002426
C     -0.914572     0.071440     0.053399
C      0.511932    -0.414535    -0.139070
O      1.450265     0.383983     0.530020
H     -1.066941     1.045561    -0.422105
H     -1.627223    -0.628769    -0.388634
H     -1.139213     0.175365     1.117063
H      0.747502    -0.479634    -1.207919
H      0.623637    -1.416978     0.274010
H      1.414614     1.263567     0.183236
9
Iteration 1, Energy=-154.0926691462, |grad|=0.001811
C     -0.914448     0.071576     0.053343
C      0.511942    -0.414615    -0.139062
O      1.450167     0.384132     0.529934
H     -1.066878     1.045914    -0.421939
H     -1.627154    -0.628646    -0.388716
H     -1.139397     0.174895     1.116992
H      0.747381    -0.479747    -1.207837
H      0.623837    -1.416809     0.274261
H      1.414551     1.263300     0.183024
9
Iteration 2, Energy=-154.0926726595, |grad|=0.001931
C     -0.913995     0.072359     0.053189
C      0.511859    -0.414698    -0.138909
O      1.449831     0.384395     0.529728
H     -1.066485     1.047409    -0.420970
H     -1.626852    -0.628039    -0.389276
H     -1.140254     0.172608     1.116568
H      0.746882    -0.480372    -1.207616
H      0.624792    -1.416202     0.275559
H      1.414221     1.262539     0.181726
9
Iteration 3, Energy=-154.0926753764, |grad|=0.002239
C     -0.914166     0.072703     0.053067
C      0.511692    -0.414688    -0.138571
O      1.449873     0.384819     0.529593
H     -1.065922     1.048526    -0.419695
H     -1.626462    -0.627175    -0.390196
H     -1.141030     0.170570     1.116307
H      0.746577    -0.481110    -1.207618
H      0.625438    -1.415860     0.276817
H      1.414000     1.262215     0.180297
9
Iteration 4, Energy=-154.0926819374, |grad|=0.003202
C     -0.913985     0.073484     0.053346
C      0.511619    -0.414824    -0.137845
O      1.449817     0.385917     0.528879
H     -1.064148     1.051435    -0.415474
H     -1.626006    -0.624888    -0.394095
H     -1.143463     0.164949     1.116025
H      0.745803    -0.483407    -1.207027
H      0.626713    -1.414894     0.280375
H      1.413650     1.262227     0.175815
9
Iteration 0, Energy=-154.0201471149, |grad|=0.599886
C     -0.999070     0.138258     0.141932
C      0.564226    -0.280013    -0.103977
O      1.273132     0.333131     0.792025
H     -1.299767     0.723110    -0.647066
H     -1.570994    -0.937225    -0.042101
H     -1.106099     0.571093     1.054517
H      0.714569    -0.062395    -1.262123
H      0.626789    -1.509394    -0.082967
H      1.857659     1.096415     0.367320
9
Iteration -1, Energy=-154.0926819374, |grad|=0.003202
C     -0.913985     0.073484     0.053346
C      0.511619    -0.414824    -0.137845
O      1.449817     0.385917     0.528879
H     -1.064148     1.051435    -0.415474
H     -1.626006    -0.624888    -0.394095
H     -1.143463     0.164949     1.116025
H      0.745803    -0.483407    -1.207027
H      0.626713    -1.414894     0.280375
H      1.413650     1.262227     0.175815
9
Iteration 0, Energy=-154.0926849999, |grad|=0.002261
C     -0.914247     0.072689     0.053155
C      0.511795    -0.414834    -0.137644
O      1.449817     0.386156     0.528558
H     -1.064030     1.051285    -0.415167
H     -1.625922    -0.624543    -0.394499
H     -1.143528     0.165189     1.116466
H      0.745927    -0.483509    -1.206889
H      0.626339    -1.414945     0.280266
H      1.413848     1.262512     0.175755
9
Iteration 1, Energy=-154.0926882329, |grad|=0.002037
C     -0.914373     0.071977     0.053413
C      0.511924    -0.414888    -0.137528
O      1.449880     0.386578     0.528091
H     -1.063774     1.050770    -0.414484
H     -1.626101    -0.624257    -0.395539
H     -1.143632     0.165520     1.116938
H      0.746180    -0.483738    -1.206574
H      0.625692    -1.415114     0.280136
H      1.414204     1.263153     0.175547
9
Iteration 2, Energy=-154.0926909342, |grad|=0.001864
C     -0.914517     0.071516     0.054033
C      0.511553    -0.414850    -0.137178
O      1.450233     0.387632     0.527452
H     -1.063154     1.049869    -0.412942
H     -1.626424    -0.623787    -0.397554
H     -1.143951     0.165487     1.117414
H      0.746636    -0.484377    -1.206328
H      0.624871    -1.415526     0.280235
H      1.414753     1.264037     0.174867
9
Iteration 3, Energy=-154.0926911998, |grad|=0.003094
C     -0.914661     0.071227     0.054574
C      0.511905    -0.414907    -0.137325
O      1.450140     0.387492     0.527283
H     -1.062813     1.049955    -0.412143
H     -1.626501    -0.623441    -0.398622
H     -1.144293     0.165056     1.117519
H      0.746659    -0.484793    -1.205841
H      0.624598    -1.415482     0.280496
H      1.414966     1.264893     0.174059
9
Iteration 0, Energy=-154.0041562233, |grad|=0.775976
C     -1.019870    -0.042852    -0.051909
C      0.539635    -0.284741    -0.237554
O      1.245424     0.337875     0.642382
H     -1.445087     0.817142    -0.684491
H     -1.527723    -0.806812     0.108522
H     -0.993088     0.545885     1.037308
H      0.738747    -0.059808    -1.318679
H      0.618485    -1.505907     0.011688
H      1.875441     1.098563     0.308952
9
Iteration -1, Energy=-154.0926911998, |grad|=0.003094
C     -0.914661     0.071227     0.054574
C      0.511905    -0.414907    -0.137325
O      1.450140     0.387492     0.527283
H     -1.062813     1.049955    -0.412143
H     -1.626501    -0.623441    -0.398622
H     -1.144293     0.165056     1.117519
H      0.746659    -0.484793    -1.205841
H      0.624598    -1.415482     0.280496
H      1.414966     1.264893     0.174059
9
Iteration 0, Energy=-154.0926924581, |grad|=0.001302
C     -0.914570     0.071259     0.054355
C      0.511774    -0.414978    -0.137169
O      1.450145     0.387963     0.527132
H     -1.062801     1.050081    -0.412080
H     -1.626453    -0.623384    -0.398600
H     -1.144377     0.164885     1.117591
H      0.746634    -0.484831    -1.205925
H      0.624679    -1.415423     0.280559
H      1.414968     1.264426     0.174136
9
Iteration 1, Energy=-154.0926928121, |grad|=0.001172
C     -0.914537     0.071302     0.054287
C      0.511755    -0.414951    -0.137125
O      1.450121     0.387937     0.527145
H     -1.062781     1.050204    -0.412027
H     -1.626417    -0.623339    -0.398602
H     -1.144444     0.164719     1.117582
H      0.746597    -0.484873    -1.205941
H      0.624761    -1.415385     0.280649
H      1.414944     1.264386     0.174032
9
Iteration 2, Energy=-154.0926954867, |grad|=0.001107
C     -0.914329     0.072013     0.053934
C      0.511722    -0.414885    -0.136921
O      1.449814     0.387889     0.527289
H     -1.062448     1.051917    -0.411199
H     -1.625947    -0.622719    -0.398854
H     -1.145356     0.162329     1.117145
H      0.746048    -0.485495    -1.205894
H      0.625834    -1.414778     0.281942
H      1.414661     1.263730     0.172559
9
Iteration 3, Energy=-154.0926975797, |grad|=0.001558
C     -0.914443     0.072004     0.053859
C      0.511728    -0.415017    -0.136561
O      1.449780     0.388270     0.527046
H     -1.061965     1.052658    -0.409887
H     -1.625723    -0.621948    -0.399999
H     -1.146098     0.160786     1.117167
H      0.745876    -0.486106    -1.205705
H      0.626096    -1.414419     0.282874
H      1.414750     1.263771     0.171206
9
Iteration 4, Energy=-154.0927102675, |grad|=0.003156
C     -0.914704     0.071714     0.054270
C      0.511551    -0.415283    -0.134207
O      1.449531     0.392030     0.524595
H     -1.057816     1.058305    -0.398599
H     -1.624515    -0.615808    -0.410606
H     -1.152297     0.148334     1.117424
H      0.744671    -0.491340    -1.203630
H      0.627810    -1.412197     0.290743
H      1.415768     1.264246     0.160010
9
Iteration 0, Energy=-154.0584241524, |grad|=0.454457
C     -0.965040     0.105474     0.059883
C      0.564961    -0.330706    -0.157729
O      1.292486     0.378128     0.827483
H     -1.331692     0.760380    -0.662710
H     -1.545509    -0.846237     0.120218
H     -0.989393     0.530890     0.957988
H      0.867746    -0.155064    -1.166030
H      0.683257    -1.389400    -0.069938
H      1.774876     0.961984     0.409683
9
Iteration -1, Energy=-154.0927102675, |grad|=0.003156
C     -0.914704     0.071714     0.054270
C      0.511551    -0.415283    -0.134207
O      1.449531     0.392030     0.524595
H     -1.057816     1.058305    -0.398599
H     -1.624515    -0.615808    -0.410606
H     -1.152297     0.148334     1.117424
H      0.744671    -0.491340    -1.203630
H      0.627810    -1.412197     0.290743
H      1.415768     1.264246     0.160010
9
Iteration 0, Energy=-154.0927120164, |grad|=0.001715
C     -0.914625     0.071796     0.054845
C      0.511689    -0.415316    -0.134513
O      1.449458     0.392483     0.524335
H     -1.057774     1.058112    -0.398492
H     -1.624709    -0.615911    -0.410972
H     -1.152290     0.148433     1.117308
H      0.744725    -0.491392    -1.203326
H      0.627616    -1.412309     0.290680
H      1.415911     1.264104     0.160136
9
Iteration 1, Energy=-154.0927127124, |grad|=0.001356
C     -0.914620     0.071683     0.054966
C      0.511735    -0.415285    -0.134503
O      1.449422     0.392485     0.524231
H     -1.057732     1.057949    -0.398367
H     -1.624769    -0.615878    -0.411208
H     -1.152311     0.148532     1.117406
H      0.744798    -0.491449    -1.203210
H      0.627458    -1.412371     0.290603
H      1.416019     1.264334     0.160081
9
Iteration 2, Energy=-154.0927142295, |grad|=0.000660
C     -0.914720     0.070963     0.055245
C      0.511706    -0.415295    -0.134248
O      1.449431     0.392994     0.523676
H     -1.057502     1.057158    -0.397679
H     -1.624923    -0.615567    -0.412316
H     -1.152452     0.148989     1.118040
H      0.745200    -0.491761    -1.202807
H      0.626670    -1.412637     0.290190
H      1.416589     1.265156     0.159900
9
Iteration 3, Energy=-154.0927143633, |grad|=0.000544
C     -0.914848     0.070957     0.055369
C      0.511613    -0.415261    -0.134293
O      1.449555     0.393054     0.523786
H     -1.057438     1.057138    -0.397537
H     -1.624899    -0.615505    -0.412468
H     -1.152507     0.148893     1.118002
H      0.745232    -0.491861    -1.202821
H      0.626646    -1.412703     0.290239
H      1.416645     1.265288     0.159724
9
Iteration 0, Energy=-154.0256288014, |grad|=0.604876
C     -1.035320    -0.009278     0.049209
C      0.511006    -0.408697    -0.259217
O      1.273800     0.421426     0.761630
H     -1.396788     0.815490    -0.760529
H     -1.517463    -0.891758    -0.000407
H     -1.133845     0.557202     1.022130
H      0.781387    -0.058176    -1.137856
H      0.666907    -1.348659    -0.081190
H      1.889711     1.044816     0.487395
9
Iteration -1, Energy=-154.0927143633, |grad|=0.000544
C     -0.914848     0.070957     0.055369
C      0.511613    -0.415261    -0.134293
O      1.449555     0.393054     0.523786
H     -1.057438     1.057138    -0.397537
H     -1.624899    -0.615505    -0.412468
H     -1.152507     0.148893     1.118002
H      0.745232    -0.491861    -1.202821
H      0.626646    -1.412703     0.290239
H      1.416645     1.265288     0.159724
9
Iteration 0, Energy=-154.0927144158, |grad|=0.000396
C     -0.914841     0.070970     0.055336
C      0.511631    -0.415271    -0.134249
O      1.449536     0.393095     0.523764
H     -1.057433     1.057167    -0.397509
H     -1.624895    -0.615495    -0.412484
H     -1.152536     0.148848     1.118019
H      0.745225    -0.491875    -1.202832
H      0.626656    -1.412683     0.290253
H      1.416657     1.265245     0.159703
9
Iteration 0, Energy=-153.9576896114, |grad|=0.972355
C     -0.864563     0.072927    -0.026642
C      0.388148    -0.225665    -0.092641
O      1.196595     0.238366     0.789799
H     -1.306603     0.769573    -0.661647
H     -1.668956    -0.821811    -0.077747
H     -1.044723     0.672685     1.104813
H      0.728598    -0.111255    -1.235318
H      0.654485    -1.395284     0.015292
H      1.868677     0.953192     0.322909
