9
Iteration -1, Energy=-154.0837996503, |grad|=0.044117
C     -0.977020     0.054531     0.039344
C      0.487693    -0.332548    -0.192952
O      1.302254     0.336299     0.743792
H     -1.353582     0.729531    -0.729129
H     -1.591671    -0.850511     0.025441
H     -1.069217     0.581118     0.999619
H      0.788253    -0.138478    -1.230198
H      0.594696    -1.412625    -0.042175
H      1.818594     1.032682     0.386258
9
Iteration 0, Energy=-154.0843833249, |grad|=0.059413
C     -0.977280     0.053879     0.035312
C      0.484312    -0.325026    -0.187773
O      1.305233     0.320355     0.751886
H     -1.354690     0.731318    -0.731808
H     -1.597106    -0.844075     0.028915
H     -1.069673     0.569254     0.994917
H      0.790027    -0.136048    -1.225589
H      0.600639    -1.406722    -0.038040
H      1.818537     1.037066     0.372179
9
Iteration 1, Energy=-154.0849708820, |grad|=0.035094
C     -0.978177     0.054365     0.032267
C      0.483032    -0.324225    -0.185418
O      1.313796     0.319380     0.752837
H     -1.355398     0.732475    -0.733440
H     -1.600947    -0.840538     0.030813
H     -1.070298     0.562238     0.992956
H      0.791269    -0.133974    -1.221992
H      0.603824    -1.402234    -0.035695
H      1.812900     1.032512     0.367673
9
Iteration 2, Energy=-154.0855525641, |grad|=0.015882
C     -0.980572     0.055962     0.025149
C      0.485382    -0.322798    -0.179253
O      1.331056     0.312521     0.753421
H     -1.357325     0.736354    -0.738314
H     -1.612045    -0.832437     0.034509
H     -1.072982     0.545639     0.990668
H      0.794820    -0.127776    -1.211446
H      0.611494    -1.392164    -0.028851
H      1.800172     1.024698     0.354117
9
Iteration 3, Energy=-154.0857041185, |grad|=0.012918
C     -0.979866     0.055951     0.024226
C      0.487718    -0.323802    -0.177507
O      1.336536     0.309057     0.751367
H     -1.357812     0.739262    -0.740843
H     -1.617745    -0.830150     0.033355
H     -1.075975     0.541528     0.993742
H      0.798074    -0.123818    -1.206927
H      0.613990    -1.392890    -0.024920
H      1.795081     1.024862     0.347508
9
Iteration 4, Energy=-154.0858879114, |grad|=0.019755
C     -0.984349     0.059975     0.025899
C      0.492191    -0.332712    -0.172545
O      1.350274     0.301923     0.745186
H     -1.353411     0.743306    -0.740109
H     -1.629306    -0.822421     0.024813
H     -1.085134     0.532524     1.000771
H      0.809041    -0.114233    -1.198539
H      0.618760    -1.399964    -0.015309
H      1.781934     1.031603     0.329834
9
Iteration 0, Energy=-154.0378396116, |grad|=0.558825
C     -0.905691     0.116632     0.039997
C      0.578310    -0.366860    -0.179545
O      1.268780     0.271992     0.679680
H     -1.368089     0.650752    -0.829576
H     -1.586276    -0.793072     0.082127
H     -1.142159     0.512822     0.921933
H      0.749537    -0.122233    -1.212013
H      0.669900    -1.370585     0.010389
H      1.871588     1.014980     0.469821
9
Iteration -1, Energy=-154.0858879114, |grad|=0.019755
C     -0.984349     0.059975     0.025899
C      0.492191    -0.332712    -0.172545
O      1.350274     0.301923     0.745186
H     -1.353411     0.743306    -0.740109
H     -1.629306    -0.822421     0.024813
H     -1.085134     0.532524     1.000771
H      0.809041    -0.114233    -1.198539
H      0.618760    -1.399964    -0.015309
H      1.781934     1.031603     0.329834
9
Iteration 0, Energy=-154.0859565451, |grad|=0.009760
C     -0.981954     0.057697     0.026682
C      0.490914    -0.330743    -0.173223
O      1.350611     0.302731     0.744626
H     -1.352888     0.744321    -0.739948
H     -1.629267    -0.822193     0.023716
H     -1.085654     0.533271     1.001545
H      0.808783    -0.115457    -1.198207
H      0.618427    -1.401522    -0.015309
H      1.781028     1.031895     0.330117
9
Iteration 1, Energy=-154.0859975546, |grad|=0.009758
C     -0.979824     0.056415     0.027604
C      0.490388    -0.330369    -0.173284
O      1.350379     0.303304     0.743840
H     -1.351326     0.745188    -0.738538
H     -1.629111    -0.822165     0.021705
H     -1.086398     0.534042     1.002367
H      0.808331    -0.117405    -1.198184
H      0.617654    -1.402515    -0.015595
H      1.779906     1.033506     0.330084
9
Iteration 2, Energy=-154.0860846868, |grad|=0.014129
C     -0.976153     0.054511     0.030372
C      0.490270    -0.331176    -0.173151
O      1.350274     0.305554     0.741346
H     -1.345762     0.747466    -0.733449
H     -1.628222    -0.821957     0.015372
H     -1.088386     0.535496     1.004344
H      0.806840    -0.123462    -1.198516
H      0.615292    -1.404803    -0.016344
H      1.775846     1.038371     0.330025
9
Iteration 3, Energy=-154.0861938558, |grad|=0.019303
C     -0.972940     0.053201     0.034639
C      0.490891    -0.333048    -0.171924
O      1.350322     0.306741     0.738365
H     -1.335240     0.752593    -0.724820
H     -1.626393    -0.821279     0.004225
H     -1.091206     0.535669     1.007862
H      0.804117    -0.134328    -1.200232
H      0.612077    -1.408864    -0.016150
H      1.768372     1.049314     0.328034
9
Iteration 4, Energy=-154.0863281009, |grad|=0.019805
C     -0.969211     0.053445     0.040207
C      0.491693    -0.339449    -0.169597
O      1.355035     0.312665     0.731446
H     -1.317962     0.762525    -0.711517
H     -1.623841    -0.820179    -0.013760
H     -1.095249     0.533216     1.014150
H      0.799524    -0.151887    -1.203281
H      0.607655    -1.413863    -0.014183
H      1.752356     1.063527     0.326535
9
Iteration 0, Energy=-154.0233734980, |grad|=0.535829
C     -1.005000     0.094681     0.010639
C      0.388172    -0.221760    -0.105019
O      1.307628     0.298878     0.653335
H     -1.328726     0.667583    -0.748664
H     -1.671809    -0.808737     0.107523
H     -1.040348     0.519658     0.987509
H      0.860095    -0.209912    -1.318353
H      0.613456    -1.345846     0.026039
H      1.879443     0.948677     0.384185
9
Iteration -1, Energy=-154.0863281009, |grad|=0.019805
C     -0.969211     0.053445     0.040207
C      0.491693    -0.339449    -0.169597
O      1.355035     0.312665     0.731446
H     -1.317962     0.762525    -0.711517
H     -1.623841    -0.820179    -0.013760
H     -1.095249     0.533216     1.014150
H      0.799524    -0.151887    -1.203281
H      0.607655    -1.413863    -0.014183
H      1.752356     1.063527     0.326535
9
Iteration 0, Energy=-154.0864181960, |grad|=0.026360
C     -0.973739     0.056865     0.038188
C      0.494543    -0.340611    -0.168995
O      1.355158     0.306477     0.732479
H     -1.317796     0.765164    -0.713003
H     -1.624087    -0.818925    -0.013094
H     -1.093940     0.527729     1.014485
H      0.798953    -0.151692    -1.203085
H      0.609709    -1.412197    -0.010183
H      1.751199     1.067189     0.323207
9
Iteration 1, Energy=-154.0865155175, |grad|=0.015555
C     -0.973881     0.057293     0.037266
C      0.493912    -0.340773    -0.168957
O      1.357492     0.307167     0.731519
H     -1.317993     0.766916    -0.714035
H     -1.624502    -0.818362    -0.012978
H     -1.093511     0.525440     1.015058
H      0.798879    -0.151702    -1.203036
H      0.610589    -1.411990    -0.008274
H      1.749015     1.066010     0.323436
9
Iteration 2, Energy=-154.0866646141, |grad|=0.011495
C     -0.974536     0.059362     0.033651
C      0.492651    -0.340910    -0.168521
O      1.364038     0.305325     0.729015
H     -1.318572     0.773902    -0.717738
H     -1.626277    -0.815959    -0.012843
H     -1.091780     0.515979     1.017321
H      0.798483    -0.152027    -1.202738
H      0.614096    -1.411021    -0.000242
H      1.741897     1.065348     0.322096
9
Iteration 3, Energy=-154.0867353348, |grad|=0.010806
C     -0.973285     0.060468     0.031431
C      0.492074    -0.341193    -0.168263
O      1.367653     0.302363     0.726813
H     -1.318528     0.779122    -0.719068
H     -1.628001    -0.813683    -0.014200
H     -1.090764     0.508984     1.019219
H      0.798318    -0.153245    -1.202371
H      0.615989    -1.410325     0.006137
H      1.736543     1.067510     0.320302
9
Iteration 4, Energy=-154.0868700267, |grad|=0.014273
C     -0.972566     0.063465     0.028121
C      0.494287    -0.344635    -0.168175
O      1.375511     0.297910     0.719619
H     -1.315762     0.789286    -0.716611
H     -1.631209    -0.806684    -0.021327
H     -1.088682     0.493734     1.023014
H      0.798302    -0.158928    -1.201944
H      0.617708    -1.408978     0.020301
H      1.722409     1.074830     0.317002
9
Iteration 0, Energy=-154.0288861050, |grad|=0.567559
C     -0.907581     0.011799    -0.027202
C      0.418050    -0.263270    -0.136140
O      1.282953     0.246014     0.803195
H     -1.290575     0.717597    -0.688289
H     -1.640572    -0.887628    -0.030312
H     -1.031837     0.540945     0.989974
H      0.697730    -0.232129    -1.238661
H      0.530638    -1.338504    -0.114784
H      1.787625     1.069062     0.348033
9
Iteration -1, Energy=-154.0868700267, |grad|=0.014273
C     -0.972566     0.063465     0.028121
C      0.494287    -0.344635    -0.168175
O      1.375511     0.297910     0.719619
H     -1.315762     0.789286    -0.716611
H     -1.631209    -0.806684    -0.021327
H     -1.088682     0.493734     1.023014
H      0.798302    -0.158928    -1.201944
H      0.617708    -1.408978     0.020301
H      1.722409     1.074830     0.317002
9
Iteration 0, Energy=-154.0869499029, |grad|=0.023998
C     -0.968993     0.061177     0.031068
C      0.493342    -0.343214    -0.168027
O      1.373605     0.296820     0.719891
H     -1.313116     0.789536    -0.711749
H     -1.631514    -0.806235    -0.026696
H     -1.089309     0.495670     1.023827
H      0.799216    -0.163435    -1.203842
H      0.615076    -1.412188     0.019855
H      1.721693     1.081869     0.315673
9
Iteration 1, Energy=-154.0870470516, |grad|=0.014857
C     -0.968112     0.060579     0.032380
C      0.493525    -0.344457    -0.168165
O      1.374200     0.299612     0.718543
H     -1.311215     0.789670    -0.708464
H     -1.631466    -0.805879    -0.030021
H     -1.089599     0.496555     1.024486
H      0.799602    -0.166283    -1.204701
H      0.613318    -1.413178     0.019466
H      1.719746     1.083381     0.316477
9
Iteration 2, Energy=-154.0871875099, |grad|=0.010650
C     -0.966246     0.059010     0.036431
C      0.495713    -0.348312    -0.168611
O      1.374861     0.305733     0.714565
H     -1.304411     0.791170    -0.697606
H     -1.631097    -0.804536    -0.041338
H     -1.090355     0.498555     1.027139
H      0.800426    -0.176559    -1.207021
H      0.607806    -1.416164     0.018845
H      1.713302     1.091103     0.317597
9
Iteration 3, Energy=-154.0872659718, |grad|=0.012421
C     -0.965389     0.058629     0.037743
C      0.496659    -0.349725    -0.168514
O      1.375982     0.307265     0.711926
H     -1.300358     0.795071    -0.693142
H     -1.630832    -0.803715    -0.047396
H     -1.090306     0.497026     1.029523
H      0.800216    -0.183171    -1.207667
H      0.606159    -1.417517     0.020266
H      1.707869     1.096137     0.317261
9
Iteration 4, Energy=-154.0879345582, |grad|=0.032345
C     -0.954722     0.062880     0.046477
C      0.500140    -0.367773    -0.163690
O      1.393081     0.317854     0.683295
H     -1.255817     0.842707    -0.647501
H     -1.628484    -0.793125    -0.110495
H     -1.088388     0.468120     1.054424
H      0.796905    -0.253316    -1.216482
H      0.594281    -1.429024     0.043693
H      1.643003     1.151677     0.310279
9
Iteration 0, Energy=-153.9790646571, |grad|=0.809040
C     -0.865664     0.123479     0.110167
C      0.398538    -0.232113    -0.272830
O      1.218182     0.382065     0.820558
H     -1.368101     0.703938    -0.657613
H     -1.541745    -0.798655     0.079909
H     -0.980779     0.499454     0.949714
H      0.817278    -0.212414    -1.161160
H      0.598933    -1.456857    -0.062353
H      1.882569     1.146850     0.436147
9
Iteration -1, Energy=-154.0879345582, |grad|=0.032345
C     -0.954722     0.062880     0.046477
C      0.500140    -0.367773    -0.163690
O      1.393081     0.317854     0.683295
H     -1.255817     0.842707    -0.647501
H     -1.628484    -0.793125    -0.110495
H     -1.088388     0.468120     1.054424
H      0.796905    -0.253316    -1.216482
H      0.594281    -1.429024     0.043693
H      1.643003     1.151677     0.310279
9
Iteration 0, Energy=-154.0882287152, |grad|=0.026992
C     -0.955042     0.058919     0.044642
C      0.499888    -0.360733    -0.166618
O      1.394771     0.314746     0.681468
H     -1.256325     0.846982    -0.650912
H     -1.626830    -0.787294    -0.108110
H     -1.088065     0.461721     1.053907
H      0.794944    -0.252255    -1.213839
H      0.597679    -1.430832     0.050250
H      1.638980     1.148746     0.309212
9
Iteration 1, Energy=-154.0884518122, |grad|=0.021363
C     -0.954425     0.061247     0.041988
C      0.499606    -0.361499    -0.166045
O      1.396366     0.312239     0.679577
H     -1.256471     0.849500    -0.652612
H     -1.626912    -0.784205    -0.106511
H     -1.087699     0.455006     1.053214
H      0.793591    -0.250600    -1.213385
H      0.600617    -1.428630     0.055618
H      1.635327     1.146943     0.308156
9
Iteration 2, Energy=-154.0886885192, |grad|=0.037733
C     -0.949261     0.069988     0.034862
C      0.499791    -0.367100    -0.167530
O      1.405068     0.299324     0.676932
H     -1.255072     0.863129    -0.658373
H     -1.632055    -0.775026    -0.106852
H     -1.086270     0.429078     1.055204
H      0.788476    -0.247342    -1.214059
H      0.609943    -1.421958     0.079466
H      1.619380     1.149906     0.300350
9
Iteration 3, Energy=-154.0888259896, |grad|=0.025512
C     -0.950662     0.071295     0.032129
C      0.500717    -0.369413    -0.164719
O      1.409283     0.305612     0.670332
H     -1.253285     0.865990    -0.657554
H     -1.632507    -0.771148    -0.108567
H     -1.085546     0.422696     1.056323
H      0.787878    -0.247726    -1.215650
H      0.611295    -1.421020     0.085080
H      1.612826     1.143714     0.302626
9
Iteration 4, Energy=-154.0889089519, |grad|=0.010397
C     -0.951083     0.069786     0.034125
C      0.501060    -0.368089    -0.164991
O      1.407199     0.304803     0.671862
H     -1.252947     0.864174    -0.656014
H     -1.632240    -0.772877    -0.109783
H     -1.085762     0.426912     1.056371
H      0.788738    -0.249177    -1.215591
H      0.609459    -1.422589     0.081614
H      1.615575     1.147057     0.302407
9
Iteration 0, Energy=-154.0026241341, |grad|=0.940170
C     -0.987446    -0.002233     0.093549
C      0.516310    -0.296105    -0.092500
O      1.207489     0.302553     0.653548
H     -1.265485     0.732010    -0.699740
H     -1.544483    -0.955039    -0.006425
H     -1.127640     0.574493     1.083158
H      0.740205    -0.172148    -1.320418
H      0.546382    -1.437068     0.011177
H      1.765924     1.139959     0.428676
9
Iteration -1, Energy=-154.0889089519, |grad|=0.010397
C     -0.951083     0.069786     0.034125
C      0.501060    -0.368089    -0.164991
O      1.407199     0.304803     0.671862
H     -1.252947     0.864174    -0.656014
H     -1.632240    -0.772877    -0.109783
H     -1.085762     0.426912     1.056371
H      0.788738    -0.249177    -1.215591
H      0.609459    -1.422589     0.081614
H      1.615575     1.147057     0.302407
9
Iteration 0, Energy=-154.0889789616, |grad|=0.022953
C     -0.951175     0.067619     0.036628
C      0.501645    -0.366182    -0.164979
O      1.406460     0.303759     0.668775
H     -1.248757     0.865263    -0.650395
H     -1.632442    -0.770739    -0.116483
H     -1.085485     0.426264     1.057394
H      0.789216    -0.255176    -1.215097
H      0.607631    -1.425150     0.082848
H      1.612908     1.154341     0.301308
9
Iteration 1, Energy=-154.0890799686, |grad|=0.016298
C     -0.950622     0.066903     0.037904
C      0.501357    -0.367366    -0.164720
O      1.407400     0.306531     0.665806
H     -1.245694     0.866364    -0.646220
H     -1.632887    -0.769578    -0.121505
H     -1.085383     0.425494     1.058562
H      0.789533    -0.259518    -1.215138
H      0.606237    -1.425909     0.083631
H      1.610058     1.157079     0.301681
9
Iteration 2, Energy=-154.0893279354, |grad|=0.015040
C     -0.946837     0.064367     0.042812
C      0.500718    -0.374148    -0.163542
O      1.411823     0.316111     0.653885
H     -1.231153     0.874117    -0.627317
H     -1.635413    -0.764325    -0.145274
H     -1.085197     0.419944     1.065353
H      0.790083    -0.280588    -1.215930
H      0.600491    -1.428371     0.088836
H      1.595486     1.172894     0.301179
9
Iteration 3, Energy=-154.0895194540, |grad|=0.020307
C     -0.944589     0.062727     0.044954
C      0.502229    -0.376885    -0.163430
O      1.416292     0.321893     0.645716
H     -1.220267     0.884667    -0.615524
H     -1.636463    -0.758938    -0.161663
H     -1.085310     0.411287     1.071139
H      0.788550    -0.296744    -1.217055
H      0.598500    -1.430909     0.096498
H      1.581058     1.182902     0.299365
9
Iteration 4, Energy=-154.0902686462, |grad|=0.035122
C     -0.930943     0.062666     0.052642
C      0.510630    -0.396736    -0.158150
O      1.440755     0.346467     0.600617
H     -1.159279     0.946921    -0.550861
H     -1.641367    -0.727735    -0.250054
H     -1.086309     0.353872     1.101761
H      0.778113    -0.385076    -1.225996
H      0.592104    -1.440291     0.144449
H      1.496295     1.239912     0.285592
9
Iteration 0, Energy=-154.0516522422, |grad|=0.372485
C     -0.944226     0.030911     0.096976
C      0.459957    -0.323523    -0.218238
O      1.350762     0.394783     0.706080
H     -1.294510     0.668954    -0.787460
H     -1.581419    -0.944065     0.120833
H     -1.150485     0.507270     1.104881
H      0.756386    -0.061501    -1.259380
H      0.513573    -1.526047    -0.007739
H      1.749019     1.120280     0.387315
9
Iteration -1, Energy=-154.0902686462, |grad|=0.035122
C     -0.930943     0.062666     0.052642
C      0.510630    -0.396736    -0.158150
O      1.440755     0.346467     0.600617
H     -1.159279     0.946921    -0.550861
H     -1.641367    -0.727735    -0.250054
H     -1.086309     0.353872     1.101761
H      0.778113    -0.385076    -1.225996
H      0.592104    -1.440291     0.144449
H      1.496295     1.239912     0.285592
9
Iteration 0, Energy=-154.0908939526, |grad|=0.027020
C     -0.933232     0.067181     0.047306
C      0.510518    -0.391851    -0.160443
O      1.436716     0.339868     0.595994
H     -1.158590     0.947621    -0.551236
H     -1.633798    -0.717626    -0.242212
H     -1.087198     0.341715     1.094880
H      0.774675    -0.381509    -1.221426
H      0.599723    -1.437524     0.153597
H      1.491186     1.232126     0.283540
9
Iteration 1, Energy=-154.0912333381, |grad|=0.015511
C     -0.926080     0.073231     0.043692
C      0.504732    -0.395801    -0.158627
O      1.435607     0.335098     0.593327
H     -1.159289     0.953370    -0.554476
H     -1.630182    -0.710925    -0.235930
H     -1.088985     0.327343     1.089327
H      0.771489    -0.376780    -1.221184
H      0.608039    -1.429416     0.163406
H      1.484668     1.223881     0.280465
9
Iteration 2, Energy=-154.0913111146, |grad|=0.016609
C     -0.924448     0.073822     0.041918
C      0.506836    -0.395474    -0.160338
O      1.437163     0.330947     0.595295
H     -1.158840     0.959375    -0.557004
H     -1.631017    -0.709660    -0.235817
H     -1.090097     0.321346     1.091473
H      0.769013    -0.375679    -1.222102
H      0.610782    -1.428523     0.169787
H      1.480608     1.223847     0.276789
9
Iteration 3, Energy=-154.0913631954, |grad|=0.007699
C     -0.925039     0.074586     0.041549
C      0.508577    -0.396338    -0.160122
O      1.438637     0.333040     0.595176
H     -1.157998     0.961579    -0.557243
H     -1.632048    -0.709726    -0.237197
H     -1.090348     0.319246     1.093022
H      0.768261    -0.375770    -1.223462
H      0.611109    -1.428654     0.172122
H      1.478849     1.222036     0.276156
9
Iteration 4, Energy=-154.0913906250, |grad|=0.007264
C     -0.925764     0.075410     0.041692
C      0.509873    -0.397021    -0.159112
O      1.439982     0.334168     0.594717
H     -1.156555     0.963415    -0.556566
H     -1.633097    -0.709472    -0.239492
H     -1.090497     0.316915     1.094215
H      0.767779    -0.376344    -1.224978
H      0.611281    -1.428923     0.174544
H      1.476999     1.221852     0.274979
9
Iteration 0, Energy=-153.9728903695, |grad|=1.135419
C     -0.873905    -0.013351     0.033506
C      0.473841    -0.266760    -0.157624
O      1.272977     0.394870     0.644680
H     -1.296627     0.651564    -0.825683
H     -1.657298    -0.956679    -0.018570
H     -1.044444     0.693212     0.920346
H      0.801861    -0.173801    -1.313756
H      0.501642    -1.377992    -0.136052
H      1.760618     0.959446     0.453595
9
Iteration -1, Energy=-154.0913906250, |grad|=0.007264
C     -0.925764     0.075410     0.041692
C      0.509873    -0.397021    -0.159112
O      1.439982     0.334168     0.594717
H     -1.156555     0.963415    -0.556566
H     -1.633097    -0.709472    -0.239492
H     -1.090497     0.316915     1.094215
H      0.767779    -0.376344    -1.224978
H      0.611281    -1.428923     0.174544
H      1.476999     1.221852     0.274979
9
Iteration 0, Energy=-154.0914223721, |grad|=0.016537
C     -0.925512     0.074006     0.043306
C      0.507270    -0.396375    -0.158457
O      1.440202     0.333119     0.592075
H     -1.153180     0.963134    -0.551954
H     -1.632666    -0.706509    -0.244295
H     -1.090637     0.314645     1.093524
H      0.768164    -0.379115    -1.223442
H      0.610880    -1.429494     0.176399
H      1.475479     1.226588     0.272845
9
Iteration 1, Energy=-154.0914682519, |grad|=0.010123
C     -0.925383     0.073590     0.043722
C      0.506650    -0.397213    -0.158079
O      1.440525     0.335323     0.589904
H     -1.151270     0.963383    -0.549392
H     -1.632689    -0.705111    -0.247164
H     -1.090890     0.313242     1.093838
H      0.768125    -0.380740    -1.222661
H      0.610502    -1.429406     0.177405
H      1.474429     1.226931     0.272427
9
Iteration 2, Energy=-154.0915478200, |grad|=0.012005
C     -0.924740     0.072058     0.045060
C      0.505831    -0.399422    -0.156831
O      1.441327     0.340472     0.583282
H     -1.144579     0.965303    -0.540778
H     -1.633159    -0.700525    -0.257405
H     -1.092024     0.307969     1.095642
H      0.767594    -0.386736    -1.220223
H      0.609334    -1.429281     0.181429
H      1.470416     1.230162     0.269824
9
Iteration 3, Energy=-154.0916355192, |grad|=0.016723
C     -0.923616     0.070309     0.046588
C      0.506387    -0.401682    -0.155424
O      1.442517     0.345581     0.576380
H     -1.136330     0.969761    -0.530830
H     -1.634284    -0.695349    -0.270260
H     -1.093903     0.300493     1.098874
H      0.766289    -0.394699    -1.218190
H      0.608294    -1.429363     0.187317
H      1.464648     1.234948     0.265544
9
Iteration 4, Energy=-154.0918804800, |grad|=0.023599
C     -0.920526     0.066664     0.050879
C      0.508543    -0.407814    -0.150843
O      1.447672     0.360003     0.558048
H     -1.110604     0.987488    -0.500843
H     -1.637172    -0.678949    -0.309264
H     -1.100735     0.273690     1.108883
H      0.761173    -0.420669    -1.215171
H      0.607219    -1.430027     0.208118
H      1.444430     1.249615     0.250191
9
Iteration 0, Energy=-154.0032220312, |grad|=0.761512
C     -0.858593     0.122130     0.017464
C      0.418118    -0.256762    -0.100554
O      1.235131     0.297080     0.678204
H     -1.419474     0.775462    -0.793239
H     -1.577005    -0.914316     0.000726
H     -1.155885     0.516133     1.053357
H      0.708909    -0.171601    -1.188072
H      0.511910    -1.345413    -0.142987
H      1.782522     1.010707     0.309458
9
Iteration -1, Energy=-154.0918804800, |grad|=0.023599
C     -0.920526     0.066664     0.050879
C      0.508543    -0.407814    -0.150843
O      1.447672     0.360003     0.558048
H     -1.110604     0.987488    -0.500843
H     -1.637172    -0.678949    -0.309264
H     -1.100735     0.273690     1.108883
H      0.761173    -0.420669    -1.215171
H      0.607219    -1.430027     0.208118
H      1.444430     1.249615     0.250191
9
Iteration 0, Energy=-154.0919655475, |grad|=0.018392
C     -0.920668     0.067471     0.050497
C      0.509466    -0.405858    -0.151157
O      1.447449     0.354767     0.560641
H     -1.110778     0.989854    -0.501539
H     -1.636345    -0.678328    -0.308027
H     -1.101478     0.271399     1.108441
H      0.760368    -0.421364    -1.216509
H      0.608922    -1.430272     0.209891
H      1.443064     1.252332     0.247761
9
Iteration 1, Energy=-154.0920162391, |grad|=0.012822
C     -0.920519     0.068365     0.050103
C      0.509630    -0.406128    -0.151242
O      1.447571     0.355560     0.561088
H     -1.110898     0.991192    -0.501804
H     -1.635899    -0.678034    -0.307374
H     -1.101975     0.269956     1.108252
H      0.759909    -0.421716    -1.217278
H      0.609825    -1.429933     0.210717
H      1.442357     1.250737     0.247537
9
Iteration 2, Energy=-154.0921305251, |grad|=0.006788
C     -0.919334     0.073102     0.047828
C      0.510904    -0.406817    -0.151620
O      1.447490     0.356195     0.563792
H     -1.111442     0.998607    -0.502908
H     -1.633454    -0.676234    -0.304077
H     -1.104811     0.261859     1.107288
H      0.757374    -0.423821    -1.220910
H      0.614910    -1.427953     0.215495
H      1.438363     1.245061     0.245113
9
Iteration 3, Energy=-154.0921535091, |grad|=0.004914
C     -0.918131     0.074295     0.047086
C      0.511057    -0.407189    -0.151788
O      1.446644     0.355414     0.563276
H     -1.111176     1.001420    -0.502027
H     -1.632466    -0.674906    -0.304091
H     -1.106052     0.258399     1.106929
H      0.756616    -0.425086    -1.220615
H      0.616687    -1.426657     0.217602
H      1.436820     1.244310     0.243629
9
Iteration 4, Energy=-154.0921869467, |grad|=0.005945
C     -0.917679     0.075444     0.046422
C      0.510520    -0.406914    -0.151401
O      1.446229     0.355150     0.561198
H     -1.109340     1.006018    -0.498128
H     -1.630605    -0.671454    -0.306701
H     -1.108044     0.251698     1.106258
H      0.755917    -0.428574    -1.220121
H      0.619193    -1.425472     0.222232
H      1.433809     1.244106     0.240242
9
Iteration 0, Energy=-154.0516460191, |grad|=0.389001
C     -1.021384    -0.003457     0.002626
C      0.532927    -0.339616    -0.235805
O      1.257476     0.402928     0.660464
H     -1.415540     0.641891    -0.807653
H     -1.505300    -0.910209    -0.016854
H     -1.033881     0.604125     0.937609
H      0.754766    -0.068370    -1.177490
H      0.586444    -1.373220    -0.139494
H      1.799610     1.093851     0.487704
9
Iteration -1, Energy=-154.0921869467, |grad|=0.005945
C     -0.917679     0.075444     0.046422
C      0.510520    -0.406914    -0.151401
O      1.446229     0.355150     0.561198
H     -1.109340     1.006018    -0.498128
H     -1.630605    -0.671454    -0.306701
H     -1.108044     0.251698     1.106258
H      0.755917    -0.428574    -1.220121
H      0.619193    -1.425472     0.222232
H      1.433809     1.244106     0.240242
9
Iteration 0, Energy=-154.0922042526, |grad|=0.008397
C     -0.917227     0.075589     0.047145
C      0.510715    -0.408954    -0.151079
O      1.447089     0.357086     0.560208
H     -1.108316     1.005871    -0.496100
H     -1.631910    -0.671735    -0.309939
H     -1.108223     0.251453     1.107308
H      0.756138    -0.429584    -1.219645
H      0.617968    -1.424999     0.222409
H      1.433767     1.245274     0.239692
9
Iteration 1, Energy=-154.0922236261, |grad|=0.006312
C     -0.917371     0.074554     0.047635
C      0.510987    -0.408882    -0.150871
O      1.447635     0.357661     0.559337
H     -1.107262     1.006084    -0.494296
H     -1.632527    -0.671258    -0.312635
H     -1.108401     0.251059     1.108187
H      0.756312    -0.430721    -1.219209
H      0.617057    -1.425415     0.223057
H      1.433570     1.246919     0.238795
9
Iteration 2, Energy=-154.0922594988, |grad|=0.007183
C     -0.918537     0.070910     0.049219
C      0.511544    -0.408146    -0.149548
O      1.449357     0.361762     0.554956
H     -1.102910     1.007146    -0.486927
H     -1.633760    -0.668245    -0.322453
H     -1.109287     0.248258     1.110710
H      0.756871    -0.435474    -1.217877
H      0.614250    -1.427039     0.226184
H      1.432472     1.250828     0.235736
9
Iteration 3, Energy=-154.0922843093, |grad|=0.009941
C     -0.918420     0.070867     0.050107
C      0.511334    -0.408869    -0.148564
O      1.449781     0.362241     0.552617
H     -1.099780     1.008457    -0.481447
H     -1.633775    -0.665557    -0.328472
H     -1.110550     0.244063     1.111288
H      0.756734    -0.439126    -1.216965
H      0.613734    -1.426605     0.229126
H      1.430943     1.254528     0.232311
9
Iteration 4, Energy=-154.0923184009, |grad|=0.010952
C     -0.918005     0.070831     0.050565
C      0.510838    -0.409409    -0.147964
O      1.449927     0.363773     0.550176
H     -1.096866     1.010653    -0.476502
H     -1.633119    -0.662413    -0.333476
H     -1.112135     0.239083     1.111605
H      0.756248    -0.442765    -1.216093
H      0.613967    -1.425986     0.232469
H      1.429144     1.256233     0.229220
9
Iteration 0, Energy=-154.0306663298, |grad|=0.435388
C     -1.026538    -0.019406     0.023372
C      0.403046    -0.238717    -0.173884
O      1.360514     0.293529     0.807033
H     -1.265518     0.725991    -0.655433
H     -1.650592    -0.921221    -0.031354
H     -1.138553     0.570413     0.995975
H      0.734716    -0.046688    -1.308991
H      0.574076    -1.524817    -0.007801
H      1.814333     1.133878     0.417996
9
Iteration -1, Energy=-154.0923184009, |grad|=0.010952
C     -0.918005     0.070831     0.050565
C      0.510838    -0.409409    -0.147964
O      1.449927     0.363773     0.550176
H     -1.096866     1.010653    -0.476502
H     -1.633119    -0.662413    -0.333476
H     -1.112135     0.239083     1.111605
H      0.756248    -0.442765    -1.216093
H      0.613967    -1.425986     0.232469
H      1.429144     1.256233     0.229220
9
Iteration 0, Energy=-154.0923372523, |grad|=0.006217
C     -0.917661     0.070938     0.050276
C      0.510809    -0.409728    -0.148141
O      1.449828     0.365251     0.549865
H     -1.096863     1.011556    -0.476620
H     -1.632838    -0.662132    -0.333224
H     -1.112493     0.238272     1.111666
H      0.755937    -0.442962    -1.216136
H      0.614415    -1.425686     0.232887
H      1.428866     1.254492     0.229427
9
Iteration 1, Energy=-154.0923491176, |grad|=0.006308
C     -0.917286     0.071279     0.049958
C      0.510952    -0.409788    -0.148250
O      1.449563     0.365372     0.549916
H     -1.096796     1.012674    -0.476678
H     -1.632484    -0.661766    -0.332944
H     -1.112963     0.237099     1.111643
H      0.755524    -0.443282    -1.216245
H      0.615097    -1.425321     0.233546
H      1.428393     1.253733     0.229055
9
Iteration 2, Energy=-154.0923856864, |grad|=0.005567
C     -0.915978     0.073965     0.048799
C      0.511432    -0.410217    -0.148302
O      1.448504     0.364897     0.550441
H     -1.096024     1.017707    -0.476147
H     -1.630757    -0.659853    -0.332191
H     -1.115230     0.230790     1.110989
H      0.753624    -0.445162    -1.217085
H      0.618566    -1.423497     0.237076
H      1.425862     1.251372     0.226421
9
Iteration 3, Energy=-154.0923992805, |grad|=0.009732
C     -0.916033     0.073246     0.048364
C      0.510782    -0.409067    -0.148288
O      1.448809     0.365228     0.549721
H     -1.094027     1.021399    -0.473351
H     -1.629406    -0.656927    -0.334537
H     -1.117002     0.225879     1.111005
H      0.752678    -0.447734    -1.216870
H      0.620326    -1.423431     0.240692
H      1.423872     1.251407     0.223264
9
Iteration 4, Energy=-154.0924206140, |grad|=0.006984
C     -0.915827     0.074299     0.048429
C      0.510874    -0.409776    -0.147640
O      1.448774     0.365535     0.548929
H     -1.092580     1.023191    -0.470981
H     -1.629108    -0.655561    -0.336753
H     -1.118158     0.222563     1.110918
H      0.752119    -0.449426    -1.216773
H      0.621233    -1.422662     0.242753
H      1.422673     1.251835     0.221118
9
Iteration 0, Energy=-154.0266760065, |grad|=0.459620
C     -0.986456     0.145440     0.058193
C      0.450098    -0.225666    -0.102215
O      1.277402     0.403326     0.710279
H     -1.419273     0.805305    -0.728253
H     -1.612308    -0.961533     0.009572
H     -0.990475     0.670613     1.013227
H      0.848585    -0.217025    -1.311237
H      0.528247    -1.381117    -0.133476
H      1.925031     1.087568     0.381966
9
Iteration -1, Energy=-154.0924206140, |grad|=0.006984
C     -0.915827     0.074299     0.048429
C      0.510874    -0.409776    -0.147640
O      1.448774     0.365535     0.548929
H     -1.092580     1.023191    -0.470981
H     -1.629108    -0.655561    -0.336753
H     -1.118158     0.222563     1.110918
H      0.752119    -0.449426    -1.216773
H      0.621233    -1.422662     0.242753
H      1.422673     1.251835     0.221118
9
Iteration 0, Energy=-154.0924296705, |grad|=0.006806
C     -0.915493     0.075664     0.049058
C      0.511537    -0.411538    -0.146915
O      1.448611     0.366340     0.548042
H     -1.092095     1.022402    -0.469729
H     -1.630024    -0.656035    -0.338463
H     -1.118244     0.222427     1.111073
H      0.752260    -0.449723    -1.216509
H      0.620593    -1.421956     0.242526
H      1.422855     1.252419     0.220916
9
Iteration 1, Energy=-154.0924369038, |grad|=0.004142
C     -0.915560     0.074941     0.049098
C      0.511467    -0.411068    -0.147038
O      1.448735     0.366330     0.547893
H     -1.091874     1.022539    -0.469390
H     -1.630007    -0.655725    -0.338955
H     -1.118323     0.222396     1.111295
H      0.752297    -0.449965    -1.216313
H      0.620428    -1.422269     0.242750
H      1.422836     1.252821     0.220660
9
Iteration 2, Energy=-154.0924506468, |grad|=0.003735
C     -0.915727     0.073216     0.049514
C      0.511425    -0.410558    -0.146965
O      1.449176     0.367196     0.546812
H     -1.090779     1.022636    -0.467435
H     -1.630324    -0.654769    -0.341596
H     -1.118676     0.222047     1.112106
H      0.752505    -0.451034    -1.215605
H      0.619565    -1.422907     0.243459
H      1.422835     1.254173     0.219712
9
Iteration 3, Energy=-154.0924631286, |grad|=0.004960
C     -0.915980     0.071826     0.050201
C      0.511396    -0.410651    -0.146459
O      1.449751     0.368629     0.545226
H     -1.089074     1.022694    -0.464323
H     -1.630788    -0.653452    -0.345522
H     -1.119287     0.220991     1.112994
H      0.752751    -0.452697    -1.214837
H      0.618520    -1.423321     0.244543
H      1.422711     1.255980     0.218175
9
Iteration 4, Energy=-154.0924880298, |grad|=0.006990
C     -0.916049     0.070503     0.051226
C      0.511205    -0.410981    -0.145695
O      1.450444     0.371908     0.542257
H     -1.085465     1.024592    -0.458067
H     -1.630862    -0.650117    -0.352681
H     -1.121336     0.216317     1.114170
H      0.752517    -0.456685    -1.213579
H      0.617936    -1.423427     0.247985
H      1.421610     1.257891     0.214384
9
Iteration 0, Energy=-154.0063289158, |grad|=0.819170
C     -0.916094     0.073263     0.033846
C      0.507400    -0.239524    -0.129402
O      1.281255     0.243619     0.661935
H     -1.289453     0.751116    -0.682601
H     -1.574721    -0.931308     0.046763
H     -1.000941     0.510538     0.925907
H      0.873806    -0.144196    -1.305246
H      0.667745    -1.438680     0.027183
H      1.857234     1.008402     0.428972
9
Iteration -1, Energy=-154.0924880298, |grad|=0.006990
C     -0.916049     0.070503     0.051226
C      0.511205    -0.410981    -0.145695
O      1.450444     0.371908     0.542257
H     -1.085465     1.024592    -0.458067
H     -1.630862    -0.650117    -0.352681
H     -1.121336     0.216317     1.114170
H      0.752517    -0.456685    -1.213579
H      0.617936    -1.423427     0.247985
H      1.421610     1.257891     0.214384
9
Iteration 0, Energy=-154.0924977729, |grad|=0.004305
C     -0.915874     0.071992     0.051135
C      0.511546    -0.412081    -0.144986
O      1.450106     0.371282     0.542363
H     -1.085351     1.024803    -0.457757
H     -1.630865    -0.650197    -0.352738
H     -1.121588     0.215383     1.113917
H      0.752333    -0.456859    -1.213922
H      0.618346    -1.422525     0.248146
H      1.421348     1.258201     0.213843
9
Iteration 1, Energy=-154.0925029183, |grad|=0.003864
C     -0.915735     0.072335     0.051037
C      0.511547    -0.412151    -0.144997
O      1.449990     0.371363     0.542379
H     -1.085229     1.025414    -0.457621
H     -1.630652    -0.649950    -0.352708
H     -1.121872     0.214557     1.113792
H      0.752115    -0.457117    -1.213979
H      0.618760    -1.422287     0.248586
H      1.421076     1.257835     0.213511
9
Iteration 2, Energy=-154.0925149456, |grad|=0.010115
C     -0.914624     0.074531     0.049645
C      0.511595    -0.411381    -0.144992
O      1.448886     0.370060     0.542817
H     -1.083464     1.032249    -0.455402
H     -1.628195    -0.646548    -0.353226
H     -1.125091     0.205537     1.112976
H      0.749843    -0.460358    -1.214401
H      0.623056    -1.420422     0.253923
H      1.417994     1.256331     0.208661
9
Iteration 3, Energy=-154.0925309352, |grad|=0.005174
C     -0.914675     0.074770     0.049947
C      0.511487    -0.412400    -0.144623
O      1.449177     0.372389     0.541805
H     -1.082895     1.032331    -0.454194
H     -1.628405    -0.646212    -0.354632
H     -1.125369     0.204826     1.113060
H      0.749875    -0.460879    -1.214247
H      0.622815    -1.420134     0.254297
H      1.417991     1.255308     0.208587
9
Iteration 4, Energy=-154.0925360733, |grad|=0.004039
C     -0.914802     0.074371     0.050228
C      0.511507    -0.412400    -0.144574
O      1.449365     0.372508     0.541556
H     -1.082734     1.031832    -0.453773
H     -1.628707    -0.646254    -0.355340
H     -1.125241     0.205302     1.113233
H      0.750085    -0.460910    -1.214027
H      0.622323    -1.420369     0.254139
H      1.418203     1.255919     0.208558
9
Iteration 0, Energy=-154.0534028704, |grad|=0.349132
C     -0.927433     0.020955     0.048711
C      0.536581    -0.310966    -0.173281
O      1.274935     0.309066     0.712842
H     -1.318709     0.766781    -0.676874
H     -1.655768    -0.857767    -0.063087
H     -0.989004     0.684228     0.955752
H      0.861726    -0.044692    -1.303015
H      0.533609    -1.468341     0.025696
H      1.798280     1.016494     0.334386
9
Iteration -1, Energy=-154.0925360733, |grad|=0.004039
C     -0.914802     0.074371     0.050228
C      0.511507    -0.412400    -0.144574
O      1.449365     0.372508     0.541556
H     -1.082734     1.031832    -0.453773
H     -1.628707    -0.646254    -0.355340
H     -1.125241     0.205302     1.113233
H      0.750085    -0.460910    -1.214027
H      0.622323    -1.420369     0.254139
H      1.418203     1.255919     0.208558
9
Iteration 0, Energy=-154.0925382290, |grad|=0.007644
C     -0.914879     0.073663     0.050520
C      0.511659    -0.411942    -0.144480
O      1.449483     0.371570     0.541356
H     -1.082217     1.031663    -0.452712
H     -1.628982    -0.645881    -0.356758
H     -1.125392     0.205223     1.113579
H      0.750226    -0.461370    -1.213604
H      0.621873    -1.420694     0.254490
H      1.418229     1.257768     0.207609
9
Iteration 1, Energy=-154.0925439621, |grad|=0.003810
C     -0.914893     0.073652     0.050558
C      0.511601    -0.412182    -0.144417
O      1.449556     0.372311     0.541083
H     -1.082129     1.031639    -0.452512
H     -1.629015    -0.645819    -0.356998
H     -1.125429     0.205158     1.113623
H      0.750251    -0.461444    -1.213576
H      0.621787    -1.420652     0.254507
H      1.418271     1.257336     0.207733
9
Iteration 2, Energy=-154.0925506000, |grad|=0.002379
C     -0.914983     0.073215     0.050832
C      0.511565    -0.412475    -0.144179
O      1.449795     0.373442     0.540311
H     -1.081563     1.031516    -0.451317
H     -1.629247    -0.645399    -0.358501
H     -1.125644     0.204866     1.113937
H      0.750386    -0.461952    -1.213257
H      0.621328    -1.420731     0.254816
H      1.418363     1.257518     0.207358
9
Iteration 3, Energy=-154.0925582960, |grad|=0.003923
C     -0.915167     0.072306     0.051394
C      0.511566    -0.412810    -0.143701
O      1.450214     0.374929     0.538954
H     -1.080339     1.031399    -0.448789
H     -1.629670    -0.644438    -0.361634
H     -1.126162     0.204071     1.114566
H      0.750620    -0.463097    -1.212591
H      0.620485    -1.420921     0.255613
H      1.418455     1.258562     0.206189
9
Iteration 4, Energy=-154.0925688837, |grad|=0.004592
C     -0.915317     0.071511     0.052003
C      0.511570    -0.413128    -0.143064
O      1.450584     0.376496     0.537363
H     -1.078506     1.032066    -0.445207
H     -1.629859    -0.642730    -0.365753
H     -1.127280     0.201821     1.115246
H      0.750651    -0.465048    -1.211838
H      0.619950    -1.420923     0.257312
H      1.418208     1.259934     0.203938
9
Iteration 0, Energy=-154.0381451025, |grad|=0.462325
C     -0.879050     0.140720    -0.002755
C      0.479555    -0.395934    -0.230741
O      1.266382     0.373231     0.772515
H     -1.323273     0.791643    -0.659172
H     -1.607308    -0.894225    -0.024613
H     -1.120717     0.500480     1.079218
H      0.725616    -0.057076    -1.248066
H      0.591452    -1.395584     0.005559
H      1.763139     1.142604     0.360833
9
Iteration -1, Energy=-154.0925688837, |grad|=0.004592
C     -0.915317     0.071511     0.052003
C      0.511570    -0.413128    -0.143064
O      1.450584     0.376496     0.537363
H     -1.078506     1.032066    -0.445207
H     -1.629859    -0.642730    -0.365753
H     -1.127280     0.201821     1.115246
H      0.750651    -0.465048    -1.211838
H      0.619950    -1.420923     0.257312
H      1.418208     1.259934     0.203938
9
Iteration 0, Energy=-154.0925723815, |grad|=0.005135
C     -0.915194     0.071738     0.051895
C      0.511684    -0.412746    -0.143104
O      1.450362     0.375286     0.537757
H     -1.078384     1.032697    -0.445105
H     -1.629616    -0.642449    -0.365679
H     -1.127586     0.200995     1.115143
H      0.750428    -0.465342    -1.211880
H      0.620407    -1.420797     0.257810
H      1.417900     1.260618     0.203162
9
Iteration 1, Energy=-154.0925757264, |grad|=0.003358
C     -0.915136     0.071895     0.051845
C      0.511654    -0.412851    -0.143093
O      1.450323     0.375609     0.537689
H     -1.078320     1.032974    -0.445019
H     -1.629511    -0.642323    -0.365685
H     -1.127732     0.200600     1.115100
H      0.750335    -0.465473    -1.211914
H      0.620580    -1.420672     0.257996
H      1.417807     1.260239     0.203082
9
Iteration 2, Energy=-154.0925846011, |grad|=0.002839
C     -0.914792     0.072799     0.051543
C      0.511605    -0.413095    -0.143027
O      1.449989     0.376262     0.537615
H     -1.077876     1.034757    -0.444427
H     -1.628848    -0.641476    -0.365785
H     -1.128669     0.198067     1.114830
H      0.749734    -0.466354    -1.212089
H      0.621716    -1.419975     0.259284
H      1.417140     1.259016     0.202056
9
Iteration 3, Energy=-154.0925896994, |grad|=0.003262
C     -0.914533     0.073507     0.051331
C      0.511620    -0.413203    -0.142886
O      1.449713     0.376437     0.537556
H     -1.077316     1.036401    -0.443562
H     -1.628292    -0.640579    -0.366259
H     -1.129590     0.195618     1.114628
H      0.749200    -0.467301    -1.212163
H      0.622695    -1.419377     0.260612
H      1.416504     1.258497     0.200742
9
Iteration 4, Energy=-154.0926055312, |grad|=0.004665
C     -0.914209     0.073906     0.051383
C      0.511603    -0.413381    -0.142267
O      1.449641     0.377966     0.536263
H     -1.075084     1.039741    -0.439411
H     -1.627609    -0.637881    -0.370166
H     -1.131936     0.189887     1.114713
H      0.748290    -0.470191    -1.211540
H      0.623975    -1.418489     0.264220
H      1.415329     1.258443     0.196805
9
Iteration 0, Energy=-153.9921973155, |grad|=0.979002
C     -0.978682    -0.045868     0.075761
C      0.573828    -0.278839    -0.220622
O      1.316298     0.330709     0.675655
H     -1.360234     0.705372    -0.655032
H     -1.556888    -0.777966     0.030468
H     -1.076168     0.579887     1.100258
H      0.763300    -0.190235    -1.176402
H      0.624917    -1.473649    -0.140771
H      1.735826     0.967433     0.415668
9
Iteration -1, Energy=-154.0926055312, |grad|=0.004665
C     -0.914209     0.073906     0.051383
C      0.511603    -0.413381    -0.142267
O      1.449641     0.377966     0.536263
H     -1.075084     1.039741    -0.439411
H     -1.627609    -0.637881    -0.370166
H     -1.131936     0.189887     1.114713
H      0.748290    -0.470191    -1.211540
H      0.623975    -1.418489     0.264220
H      1.415329     1.258443     0.196805
9
Iteration 0, Energy=-154.0926091607, |grad|=0.003289
C     -0.914317     0.073762     0.051480
C      0.511744    -0.413379    -0.142047
O      1.449656     0.377295     0.536256
H     -1.074912     1.039536    -0.438983
H     -1.627736    -0.637783    -0.370706
H     -1.131957     0.189924     1.114823
H      0.748380    -0.470305    -1.211445
H      0.623765    -1.418497     0.264261
H      1.415377     1.259447     0.196360
9
Iteration 1, Energy=-154.0926114389, |grad|=0.002939
C     -0.914379     0.073581     0.051585
C      0.511750    -0.413463    -0.141949
O      1.449738     0.377520     0.536033
H     -1.074752     1.039398    -0.438593
H     -1.627839    -0.637675    -0.371210
H     -1.131994     0.189936     1.114929
H      0.748457    -0.470419    -1.211328
H      0.623564    -1.418540     0.264313
H      1.415455     1.259663     0.196221
9
Iteration 2, Energy=-154.0926203082, |grad|=0.006022
C     -0.914722     0.070781     0.052837
C      0.511470    -0.412856    -0.141697
O      1.450707     0.380083     0.533554
H     -1.072564     1.038840    -0.433701
H     -1.628757    -0.635776    -0.377441
H     -1.132982     0.189014     1.116267
H      0.749087    -0.472380    -1.209618
H      0.621686    -1.419735     0.265977
H      1.416075     1.262028     0.193822
9
Iteration 3, Energy=-154.0926267943, |grad|=0.004262
C     -0.915000     0.071357     0.052960
C      0.511832    -0.414457    -0.140433
O      1.450671     0.381006     0.532671
H     -1.071763     1.038878    -0.431803
H     -1.628859    -0.635092    -0.379411
H     -1.133575     0.187733     1.116522
H      0.749143    -0.473181    -1.209634
H      0.621416    -1.418825     0.266433
H      1.416135     1.262582     0.192696
9
Iteration 4, Energy=-154.0926304319, |grad|=0.002894
C     -0.914880     0.071554     0.052873
C      0.511793    -0.414211    -0.140659
O      1.450546     0.380763     0.532945
H     -1.071827     1.039392    -0.432074
H     -1.628622    -0.635006    -0.378966
H     -1.133729     0.187251     1.116357
H      0.748955    -0.473262    -1.209708
H      0.621821    -1.418762     0.266676
H      1.415942     1.262281     0.192555
9
Iteration 0, Energy=-154.0445534929, |grad|=0.466181
C     -0.989549     0.012477     0.103309
C      0.437927    -0.366904    -0.134035
O      1.314405     0.404893     0.787154
H     -1.300200     0.645845    -0.770409
H     -1.636704    -0.831820     0.113375
H     -1.039849     0.679573     1.100875
H      0.880774    -0.094526    -1.263808
H      0.587956    -1.337157    -0.079633
H      1.837153     1.019647     0.373746
9
Iteration -1, Energy=-154.0926304319, |grad|=0.002894
C     -0.914880     0.071554     0.052873
C      0.511793    -0.414211    -0.140659
O      1.450546     0.380763     0.532945
H     -1.071827     1.039392    -0.432074
H     -1.628622    -0.635006    -0.378966
H     -1.133729     0.187251     1.116357
H      0.748955    -0.473262    -1.209708
H      0.621821    -1.418762     0.266676
H      1.415942     1.262281     0.192555
9
Iteration 0, Energy=-154.0926331497, |grad|=0.003645
C     -0.914666     0.071475     0.052835
C      0.511655    -0.413466    -0.141102
O      1.450443     0.380376     0.533219
H     -1.071700     1.040247    -0.432018
H     -1.628321    -0.634642    -0.378867
H     -1.134100     0.186336     1.116228
H      0.748691    -0.473615    -1.209597
H      0.622338    -1.418899     0.267335
H      1.415659     1.262188     0.191969
9
Iteration 1, Energy=-154.0926359342, |grad|=0.002665
C     -0.914586     0.071779     0.052730
C      0.511651    -0.413583    -0.141020
O      1.450339     0.380545     0.533210
H     -1.071590     1.040715    -0.431846
H     -1.628142    -0.634429    -0.378882
H     -1.134364     0.185628     1.116144
H      0.748531    -0.473846    -1.209661
H      0.622652    -1.418661     0.267654
H      1.415509     1.261851     0.191670
9
Iteration 2, Energy=-154.0926423973, |grad|=0.002366
C     -0.914269     0.073296     0.052297
C      0.511802    -0.414157    -0.140453
O      1.449773     0.380676     0.533262
H     -1.070895     1.043109    -0.430645
H     -1.627274    -0.633229    -0.379332
H     -1.135782     0.181858     1.115725
H      0.747722    -0.475145    -1.209915
H      0.624197    -1.417391     0.269414
H      1.414726     1.260984     0.189646
9
Iteration 3, Energy=-154.0926454787, |grad|=0.003545
C     -0.914159     0.073268     0.052376
C      0.511684    -0.414079    -0.140464
O      1.449788     0.381582     0.532845
H     -1.070296     1.044183    -0.429457
H     -1.627034    -0.632412    -0.380443
H     -1.136530     0.180128     1.115694
H      0.747442    -0.475964    -1.209634
H      0.624596    -1.417221     0.270523
H      1.414508     1.260515     0.188560
9
Iteration 4, Energy=-154.0926507069, |grad|=0.004541
C     -0.914105     0.073212     0.052490
C      0.511648    -0.414136    -0.140175
O      1.449820     0.382424     0.532217
H     -1.069378     1.045363    -0.427515
H     -1.626844    -0.631286    -0.382354
H     -1.137527     0.177897     1.115771
H      0.747161    -0.477102    -1.209238
H      0.624930    -1.416931     0.271967
H      1.414294     1.260559     0.186836
9
Iteration 0, Energy=-154.0201471149, |grad|=0.599886
C     -0.999070     0.138258     0.141932
C      0.564226    -0.280013    -0.103977
O      1.273132     0.333131     0.792025
H     -1.299767     0.723110    -0.647066
H     -1.570994    -0.937225    -0.042101
H     -1.106099     0.571093     1.054517
H      0.714569    -0.062395    -1.262123
H      0.626789    -1.509394    -0.082967
H      1.857659     1.096415     0.367320
9
Iteration -1, Energy=-154.0926507069, |grad|=0.004541
C     -0.914105     0.073212     0.052490
C      0.511648    -0.414136    -0.140175
O      1.449820     0.382424     0.532217
H     -1.069378     1.045363    -0.427515
H     -1.626844    -0.631286    -0.382354
H     -1.137527     0.177897     1.115771
H      0.747161    -0.477102    -1.209238
H      0.624930    -1.416931     0.271967
H      1.414294     1.260559     0.186836
9
Iteration 0, Energy=-154.0926536209, |grad|=0.002414
C     -0.914178     0.073168     0.052507
C      0.511778    -0.414134    -0.139952
O      1.449799     0.381775     0.532260
H     -1.069270     1.045178    -0.427211
H     -1.626935    -0.631229    -0.382716
H     -1.137546     0.177927     1.115870
H      0.747229    -0.477165    -1.209206
H      0.624791    -1.416912     0.271985
H      1.414332     1.261392     0.186464
9
Iteration 1, Energy=-154.0926548378, |grad|=0.002177
C     -0.914220     0.073058     0.052567
C      0.511788    -0.414199    -0.139871
O      1.449847     0.381923     0.532110
H     -1.069171     1.045066    -0.426947
H     -1.627006    -0.631159    -0.383053
H     -1.137575     0.177941     1.115948
H      0.747285    -0.477229    -1.209136
H      0.624653    -1.416935     0.272015
H      1.414400     1.261534     0.186367
9
Iteration 2, Energy=-154.0926601986, |grad|=0.004139
C     -0.914647     0.070761     0.053707
C      0.511630    -0.413912    -0.139666
O      1.450605     0.383834     0.530262
H     -1.067657     1.044302    -0.423218
H     -1.627759    -0.629775    -0.387883
H     -1.138272     0.177581     1.116935
H      0.747895    -0.478469    -1.207778
H      0.623016    -1.417808     0.273120
H      1.415189     1.263486     0.184523
9
Iteration 3, Energy=-154.0926639346, |grad|=0.003349
C     -0.914730     0.071401     0.053506
C      0.511828    -0.414915    -0.138687
O      1.450471     0.384398     0.529772
H     -1.067192     1.044440    -0.422026
H     -1.627730    -0.629318    -0.388960
H     -1.138787     0.176492     1.117148
H      0.747872    -0.478998    -1.207928
H      0.623034    -1.417110     0.273479
H      1.415234     1.263610     0.183697
9
Iteration 4, Energy=-154.0926659706, |grad|=0.002372
C     -0.914652     0.071564     0.053473
C      0.511815    -0.414754    -0.138838
O      1.450377     0.384250     0.529950
H     -1.067210     1.044837    -0.422163
H     -1.627566    -0.629241    -0.388701
H     -1.138921     0.176084     1.117014
H      0.747730    -0.479092    -1.207960
H      0.623327    -1.417048     0.273676
H      1.415099     1.263401     0.183548
9
Iteration 0, Energy=-154.0041562233, |grad|=0.775976
C     -1.019870    -0.042852    -0.051909
C      0.539635    -0.284741    -0.237554
O      1.245424     0.337875     0.642382
H     -1.445087     0.817142    -0.684491
H     -1.527723    -0.806812     0.108522
H     -0.993088     0.545885     1.037308
H      0.738747    -0.059808    -1.318679
H      0.618485    -1.505907     0.011688
H      1.875441     1.098563     0.308952
9
Iteration -1, Energy=-154.0926659706, |grad|=0.002372
C     -0.914652     0.071564     0.053473
C      0.511815    -0.414754    -0.138838
O      1.450377     0.384250     0.529950
H     -1.067210     1.044837    -0.422163
H     -1.627566    -0.629241    -0.388701
H     -1.138921     0.176084     1.117014
H      0.747730    -0.479092    -1.207960
H      0.623327    -1.417048     0.273676
H      1.415099     1.263401     0.183548
9
Iteration 0, Energy=-154.0926673148, |grad|=0.002412
C     -0.914555     0.071388     0.053582
C      0.511731    -0.414221    -0.139236
O      1.450343     0.384045     0.530125
H     -1.067135     1.045372    -0.422136
H     -1.627399    -0.629022    -0.388685
H     -1.139130     0.175577     1.116885
H      0.747579    -0.479301    -1.207806
H      0.623602    -1.417199     0.274081
H      1.414963     1.263361     0.183190
9
Iteration 1, Energy=-154.0926684535, |grad|=0.001834
C     -0.914521     0.071544     0.053521
C      0.511729    -0.414303    -0.139163
O      1.450291     0.384157     0.530108
H     -1.067076     1.045597    -0.422019
H     -1.627315    -0.628912    -0.388720
H     -1.139272     0.175212     1.116850
H      0.747504    -0.479420    -1.207835
H      0.623749    -1.417066     0.274235
H      1.414910     1.263191     0.183023
9
Iteration 2, Energy=-154.0926728683, |grad|=0.001750
C     -0.914275     0.072628     0.053146
C      0.511777    -0.414648    -0.138691
O      1.449867     0.384423     0.530122
H     -1.066542     1.047430    -0.420966
H     -1.626663    -0.627972    -0.389175
H     -1.140436     0.172260     1.116560
H      0.746904    -0.480435    -1.207954
H      0.624905    -1.416131     0.275593
H      1.414463     1.262445     0.181365
9
Iteration 3, Energy=-154.0926752094, |grad|=0.002356
C     -0.914218     0.072756     0.053205
C      0.511745    -0.414646    -0.138586
O      1.449802     0.384955     0.529866
H     -1.066050     1.048360    -0.419891
H     -1.626432    -0.627270    -0.390121
H     -1.141145     0.170644     1.116483
H      0.746654    -0.481134    -1.207740
H      0.625294    -1.415869     0.276548
H      1.414349     1.262203     0.180237
9
Iteration 4, Energy=-154.0926858423, |grad|=0.003548
C     -0.914072     0.073135     0.053443
C      0.511718    -0.414841    -0.137496
O      1.449550     0.387141     0.528369
H     -1.063368     1.052466    -0.413789
H     -1.625528    -0.623635    -0.395759
H     -1.144703     0.162808     1.116452
H      0.745625    -0.484700    -1.206607
H      0.626789    -1.414543     0.281266
H      1.413990     1.262169     0.174122
9
Iteration 0, Energy=-154.0584241524, |grad|=0.454457
C     -0.965040     0.105474     0.059883
C      0.564961    -0.330706    -0.157729
O      1.292486     0.378128     0.827483
H     -1.331692     0.760380    -0.662710
H     -1.545509    -0.846237     0.120218
H     -0.989393     0.530890     0.957988
H      0.867746    -0.155064    -1.166030
H      0.683257    -1.389400    -0.069938
H      1.774876     0.961984     0.409683
9
Iteration -1, Energy=-154.0926858423, |grad|=0.003548
C     -0.914072     0.073135     0.053443
C      0.511718    -0.414841    -0.137496
O      1.449550     0.387141     0.528369
H     -1.063368     1.052466    -0.413789
H     -1.625528    -0.623635    -0.395759
H     -1.144703     0.162808     1.116452
H      0.745625    -0.484700    -1.206607
H      0.626789    -1.414543     0.281266
H      1.413990     1.262169     0.174122
9
Iteration 0, Energy=-154.0926865632, |grad|=0.006406
C     -0.914218     0.072628     0.053545
C      0.511877    -0.414704    -0.137151
O      1.449603     0.386174     0.528281
H     -1.063149     1.051827    -0.413079
H     -1.625792    -0.623479    -0.396718
H     -1.144695     0.163214     1.116810
H      0.745886    -0.484772    -1.206418
H      0.626258    -1.414705     0.281224
H      1.414230     1.263817     0.173508
9
Iteration 1, Energy=-154.0926904161, |grad|=0.002493
C     -0.914213     0.072604     0.053609
C      0.511797    -0.414825    -0.137232
O      1.449663     0.386860     0.528089
H     -1.063142     1.051844    -0.413062
H     -1.625795    -0.623472    -0.396762
H     -1.144702     0.163206     1.116792
H      0.745890    -0.484777    -1.206384
H      0.626229    -1.414717     0.281223
H      1.414273     1.263278     0.173728
9
Iteration 2, Energy=-154.0926923529, |grad|=0.001342
C     -0.914283     0.072307     0.053771
C      0.511762    -0.414903    -0.137201
O      1.449778     0.387352     0.527780
H     -1.063015     1.051572    -0.412672
H     -1.625927    -0.623371    -0.397317
H     -1.144720     0.163372     1.116936
H      0.746021    -0.484835    -1.206231
H      0.625932    -1.414827     0.281224
H      1.414452     1.263335     0.173710
9
Iteration 3, Energy=-154.0926942298, |grad|=0.001299
C     -0.914443     0.071684     0.054095
C      0.511741    -0.414970    -0.137082
O      1.449985     0.387940     0.527252
H     -1.062722     1.051017    -0.411792
H     -1.626197    -0.623128    -0.398537
H     -1.144792     0.163657     1.117259
H      0.746292    -0.484996    -1.205915
H      0.625325    -1.415055     0.281273
H      1.414810     1.263850     0.173448
9
Iteration 4, Energy=-154.0926953832, |grad|=0.001006
C     -0.914550     0.071413     0.054274
C      0.511748    -0.414980    -0.136928
O      1.450057     0.388233     0.526981
H     -1.062424     1.050972    -0.410995
H     -1.626266    -0.622797    -0.399483
H     -1.145070     0.163326     1.117459
H      0.746389    -0.485308    -1.205733
H      0.625105    -1.415094     0.281553
H      1.415010     1.264236     0.172872
9
Iteration 0, Energy=-154.0256288014, |grad|=0.604876
C     -1.035320    -0.009278     0.049209
C      0.511006    -0.408697    -0.259217
O      1.273800     0.421426     0.761630
H     -1.396788     0.815490    -0.760529
H     -1.517463    -0.891758    -0.000407
H     -1.133845     0.557202     1.022130
H      0.781387    -0.058176    -1.137856
H      0.666907    -1.348659    -0.081190
H      1.889711     1.044816     0.487395
9
Iteration -1, Energy=-154.0926953832, |grad|=0.001006
C     -0.914550     0.071413     0.054274
C      0.511748    -0.414980    -0.136928
O      1.450057     0.388233     0.526981
H     -1.062424     1.050972    -0.410995
H     -1.626266    -0.622797    -0.399483
H     -1.145070     0.163326     1.117459
H      0.746389    -0.485308    -1.205733
H      0.625105    -1.415094     0.281553
H      1.415010     1.264236     0.172872
9
Iteration 0, Energy=-154.0926957533, |grad|=0.002214
C     -0.914507     0.071519     0.054234
C      0.511795    -0.414897    -0.136849
O      1.449951     0.387917     0.527073
H     -1.062312     1.051288    -0.410729
H     -1.626171    -0.622609    -0.399668
H     -1.145313     0.162795     1.117440
H      0.746298    -0.485514    -1.205695
H      0.625281    -1.414971     0.281824
H      1.414977     1.264472     0.172369
9
Iteration 1, Energy=-154.0926963846, |grad|=0.001519
C     -0.914493     0.071565     0.054230
C      0.511782    -0.414927    -0.136824
O      1.449930     0.388076     0.527027
H     -1.062257     1.051433    -0.410591
H     -1.626126    -0.622516    -0.399774
H     -1.145427     0.162544     1.117426
H      0.746260    -0.485610    -1.205672
H      0.625349    -1.414911     0.281946
H      1.414981     1.264345     0.172232
9
Iteration 2, Energy=-154.0926990788, |grad|=0.001555
C     -0.914378     0.071964     0.054190
C      0.511731    -0.415024    -0.136564
O      1.449687     0.388876     0.526782
H     -1.061704     1.052814    -0.409227
H     -1.625705    -0.621602    -0.400827
H     -1.146532     0.160142     1.117305
H      0.745896    -0.486547    -1.205444
H      0.626008    -1.414367     0.283154
H      1.414995     1.263745     0.170631
9
Iteration 3, Energy=-154.0927007972, |grad|=0.002104
C     -0.914340     0.072225     0.054210
C      0.511699    -0.415035    -0.136279
O      1.449502     0.389428     0.526563
H     -1.061117     1.054024    -0.407748
H     -1.625348    -0.620676    -0.402058
H     -1.147587     0.157891     1.117216
H      0.745594    -0.487464    -1.205183
H      0.626545    -1.413917     0.284356
H      1.415052     1.263525     0.168923
9
Iteration 4, Energy=-154.0927070870, |grad|=0.003533
C     -0.914412     0.072272     0.054508
C      0.511627    -0.415300    -0.135007
O      1.449250     0.391705     0.525217
H     -1.058998     1.056854    -0.402026
H     -1.624732    -0.617621    -0.407449
H     -1.150822     0.151505     1.117388
H      0.745018    -0.490290    -1.204044
H      0.627348    -1.412763     0.288092
H      1.415720     1.263638     0.163321
9
Iteration 0, Energy=-153.9576896114, |grad|=0.972355
C     -0.864563     0.072927    -0.026642
C      0.388148    -0.225665    -0.092641
O      1.196595     0.238366     0.789799
H     -1.306603     0.769573    -0.661647
H     -1.668956    -0.821811    -0.077747
H     -1.044723     0.672685     1.104813
H      0.728598    -0.111255    -1.235318
H      0.654485    -1.395284     0.015292
H      1.868677     0.953192     0.322909
9
Iteration -1, Energy=-154.0927070870, |grad|=0.003533
C     -0.914412     0.072272     0.054508
C      0.511627    -0.415300    -0.135007
O      1.449250     0.391705     0.525217
H     -1.058998     1.056854    -0.402026
H     -1.624732    -0.617621    -0.407449
H     -1.150822     0.151505     1.117388
H      0.745018    -0.490290    -1.204044
H      0.627348    -1.412763     0.288092
H      1.415720     1.263638     0.163321
9
Iteration 0, Energy=-154.0927087549, |grad|=0.001651
C     -0.914489     0.072048     0.054631
C      0.511688    -0.415069    -0.135083
O      1.449273     0.391219     0.525311
H     -1.058953     1.056751    -0.401900
H     -1.624779    -0.617567    -0.407656
H     -1.150804     0.151611     1.117405
H      0.745064    -0.490298    -1.203940
H      0.627243    -1.412897     0.288151
H      1.415757     1.264204     0.163080
9
Iteration 1, Energy=-154.0927093134, |grad|=0.001440
C     -0.914533     0.071917     0.054694
C      0.511685    -0.415068    -0.135078
O      1.449321     0.391310     0.525225
H     -1.058917     1.056634    -0.401765
H     -1.624830    -0.617532    -0.407853
H     -1.150795     0.151697     1.117448
H      0.745114    -0.490295    -1.203882
H      0.627130    -1.412951     0.288159
H      1.415825     1.264289     0.163052
9
Iteration 2, Energy=-154.0927102696, |grad|=0.002816
C     -0.914702     0.071141     0.054879
C      0.511668    -0.415491    -0.134400
O      1.449643     0.391970     0.524386
H     -1.058540     1.055464    -0.400239
H     -1.625393    -0.617241    -0.409898
H     -1.150893     0.152250     1.118139
H      0.745600    -0.490328    -1.203562
H      0.626104    -1.413094     0.288187
H      1.416513     1.265328     0.162509
9
Iteration 3, Energy=-154.0927113555, |grad|=0.001247
C     -0.914834     0.070796     0.055244
C      0.511676    -0.415102    -0.134927
O      1.449685     0.392220     0.524398
H     -1.058496     1.055768    -0.400244
H     -1.625288    -0.617090    -0.409968
H     -1.150965     0.152077     1.117955
H      0.745537    -0.490427    -1.203311
H      0.626160    -1.413323     0.288427
H      1.416525     1.265081     0.162427
9
Iteration 4, Energy=-154.0927116107, |grad|=0.000520
C     -0.914791     0.071027     0.055105
C      0.511681    -0.415173    -0.134823
O      1.449615     0.392073     0.524504
H     -1.058535     1.055884    -0.400376
H     -1.625217    -0.617127    -0.409726
H     -1.150984     0.151941     1.117915
H      0.745481    -0.490434    -1.203430
H      0.626306    -1.413202     0.288401
H      1.416446     1.265011     0.162431
9
Iteration 0, Energy=-154.0421530087, |grad|=0.550753
C     -0.947767     0.105671     0.013588
C      0.563546    -0.324145    -0.150999
O      1.344764     0.286225     0.735228
H     -1.356441     0.641301    -0.658568
H     -1.508984    -0.959264    -0.068463
H     -0.980822     0.501111     0.949824
H      0.786645    -0.125911    -1.168154
H      0.686388    -1.387686    -0.104934
H      1.762860     1.110707     0.449258
9
Iteration -1, Energy=-154.0927116107, |grad|=0.000520
C     -0.914791     0.071027     0.055105
C      0.511681    -0.415173    -0.134823
O      1.449615     0.392073     0.524504
H     -1.058535     1.055884    -0.400376
H     -1.625217    -0.617127    -0.409726
H     -1.150984     0.151941     1.117915
H      0.745481    -0.490434    -1.203430
H      0.626306    -1.413202     0.288401
H      1.416446     1.265011     0.162431
9
Iteration 0, Energy=-154.0927118714, |grad|=0.001022
C     -0.914785     0.071217     0.055012
C      0.511659    -0.415239    -0.134622
O      1.449546     0.392048     0.524530
H     -1.058456     1.056066    -0.400115
H     -1.625130    -0.616981    -0.409884
H     -1.151196     0.151486     1.117912
H      0.745434    -0.490586    -1.203469
H      0.626441    -1.413039     0.288575
H      1.416487     1.265029     0.162061
9
Iteration 0, Energy=-154.0468348866, |grad|=0.394788
C     -1.033540     0.112580     0.086737
C      0.406288    -0.242463    -0.278574
O      1.359224     0.330387     0.784280
H     -1.325123     0.833011    -0.640226
H     -1.501134    -0.797504     0.090451
H     -0.989195     0.595230     1.103612
H      0.798034    -0.141129    -1.250941
H      0.496812    -1.460965    -0.134381
H      1.890438     0.960251     0.392900
9
Iteration -1, Energy=-154.0927118714, |grad|=0.001022
C     -0.914785     0.071217     0.055012
C      0.511659    -0.415239    -0.134622
O      1.449546     0.392048     0.524530
H     -1.058456     1.056066    -0.400115
H     -1.625130    -0.616981    -0.409884
H     -1.151196     0.151486     1.117912
H      0.745434    -0.490586    -1.203469
H      0.626441    -1.413039     0.288575
H      1.416487     1.265029     0.162061
9
Iteration 0, Energy=-154.0927119563, |grad|=0.000729
C     -0.914786     0.071190     0.055037
C      0.511657    -0.415218    -0.134661
O      1.449549     0.392091     0.524521
H     -1.058452     1.056092    -0.400107
H     -1.625126    -0.616970    -0.409899
H     -1.151206     0.151468     1.117902
H      0.745429    -0.490594    -1.203445
H      0.626443    -1.413053     0.288595
H      1.416492     1.264994     0.162056
9
Iteration 0, Energy=-154.0206905086, |grad|=0.634308
C     -0.960997     0.123660     0.111430
C      0.569860    -0.226448    -0.245290
O      1.351226     0.347875     0.787903
H     -1.409402     0.683598    -0.642009
H     -1.607645    -0.949697     0.100298
H     -1.022594     0.561337     0.938499
H      0.693510    -0.096287    -1.283906
H      0.498361    -1.427514    -0.056191
H      1.888276     0.980532     0.377408
9
Iteration -1, Energy=-154.0927119563, |grad|=0.000729
C     -0.914786     0.071190     0.055037
C      0.511657    -0.415218    -0.134661
O      1.449549     0.392091     0.524521
H     -1.058452     1.056092    -0.400107
H     -1.625126    -0.616970    -0.409899
H     -1.151206     0.151468     1.117902
H      0.745429    -0.490594    -1.203445
H      0.626443    -1.413053     0.288595
H      1.416492     1.264994     0.162056
9
Iteration 0, Energy=-154.0927120428, |grad|=0.000450
C     -0.914788     0.071147     0.055078
C      0.511656    -0.415183    -0.134718
O      1.449551     0.392155     0.524507
H     -1.058441     1.056139    -0.400083
H     -1.625118    -0.616945    -0.409934
H     -1.151230     0.151426     1.117888
H      0.745418    -0.490613    -1.203405
H      0.626449    -1.413072     0.288635
H      1.416503     1.264946     0.162032
9
Iteration 0, Energy=-154.0132496047, |grad|=0.637914
C     -0.864552     0.108018     0.060165
C      0.413419    -0.278723    -0.241539
O      1.186613     0.298385     0.657121
H     -1.284522     0.793781    -0.727628
H     -1.597439    -0.957367     0.038439
H     -1.038970     0.539403     1.030835
H      0.737350    -0.203036    -1.256394
H      0.600824    -1.351837     0.016587
H      1.904168     1.000667     0.296514
