9
Iteration -1, Energy=-154.0837996503, |grad|=0.044117
C     -0.977020     0.054531     0.039344
C      0.487693    -0.332548    -0.192952
O      1.302254     0.336299     0.743792
H     -1.353582     0.729531    -0.729129
H     -1.591671    -0.850511     0.025441
H     -1.069217     0.581118     0.999619
H      0.788253    -0.138478    -1.230198
H      0.594696    -1.412625    -0.042175
H      1.818594     1.032682     0.386258
9
Iteration 0, Energy=-154.0843833249, |grad|=0.059413
C     -0.977280     0.053879     0.035312
C      0.484312    -0.325026    -0.187773
O      1.305233     0.320355     0.751886
H     -1.354690     0.731318    -0.731808
H     -1.597106    -0.844075     0.028915
H     -1.069673     0.569254     0.994917
H      0.790027    -0.136048    -1.225589
H      0.600639    -1.406722    -0.038040
H      1.818537     1.037066     0.372179
9
Iteration 1, Energy=-154.0849708820, |grad|=0.035094
C     -0.978177     0.054365     0.032267
C      0.483032    -0.324225    -0.185418
O      1.313796     0.319380     0.752837
H     -1.355398     0.732475    -0.733440
H     -1.600947    -0.840538     0.030813
H     -1.070298     0.562238     0.992956
H      0.791269    -0.133974    -1.221992
H      0.603824    -1.402234    -0.035695
H      1.812900     1.032512     0.367673
9
Iteration 2, Energy=-154.0855525641, |grad|=0.015882
C     -0.980572     0.055962     0.025149
C      0.485382    -0.322798    -0.179253
O      1.331056     0.312521     0.753421
H     -1.357325     0.736354    -0.738314
H     -1.612045    -0.832437     0.034509
H     -1.072982     0.545639     0.990668
H      0.794820    -0.127776    -1.211446
H      0.611494    -1.392164    -0.028851
H      1.800172     1.024698     0.354117
9
Iteration 3, Energy=-154.0857041185, |grad|=0.012918
C     -0.979866     0.055951     0.024226
C      0.487718    -0.323802    -0.177507
O      1.336536     0.309057     0.751367
H     -1.357812     0.739262    -0.740843
H     -1.617745    -0.830150     0.033355
H     -1.075975     0.541528     0.993742
H      0.798074    -0.123818    -1.206927
H      0.613990    -1.392890    -0.024920
H      1.795081     1.024862     0.347508
9
Iteration 4, Energy=-154.0858879114, |grad|=0.019755
C     -0.984349     0.059975     0.025899
C      0.492191    -0.332712    -0.172545
O      1.350274     0.301923     0.745186
H     -1.353411     0.743306    -0.740109
H     -1.629306    -0.822421     0.024813
H     -1.085134     0.532524     1.000771
H      0.809041    -0.114233    -1.198539
H      0.618760    -1.399964    -0.015309
H      1.781934     1.031603     0.329834
9
Iteration 0, Energy=-154.0378396116, |grad|=0.558825
C     -0.905691     0.116632     0.039997
C      0.578310    -0.366860    -0.179545
O      1.268780     0.271992     0.679680
H     -1.368089     0.650752    -0.829576
H     -1.586276    -0.793072     0.082127
H     -1.142159     0.512822     0.921933
H      0.749537    -0.122233    -1.212013
H      0.669900    -1.370585     0.010389
H      1.871588     1.014980     0.469821
9
Iteration -1, Energy=-154.0858879114, |grad|=0.019755
C     -0.984349     0.059975     0.025899
C      0.492191    -0.332712    -0.172545
O      1.350274     0.301923     0.745186
H     -1.353411     0.743306    -0.740109
H     -1.629306    -0.822421     0.024813
H     -1.085134     0.532524     1.000771
H      0.809041    -0.114233    -1.198539
H      0.618760    -1.399964    -0.015309
H      1.781934     1.031603     0.329834
9
Iteration 0, Energy=-154.0859565451, |grad|=0.009760
C     -0.981954     0.057697     0.026682
C      0.490914    -0.330743    -0.173223
O      1.350611     0.302731     0.744626
H     -1.352888     0.744321    -0.739948
H     -1.629267    -0.822193     0.023716
H     -1.085654     0.533271     1.001545
H      0.808783    -0.115457    -1.198207
H      0.618427    -1.401522    -0.015309
H      1.781028     1.031895     0.330117
9
Iteration 1, Energy=-154.0859975546, |grad|=0.009758
C     -0.979824     0.056415     0.027604
C      0.490388    -0.330369    -0.173284
O      1.350379     0.303304     0.743840
H     -1.351326     0.745188    -0.738538
H     -1.629111    -0.822165     0.021705
H     -1.086398     0.534042     1.002367
H      0.808331    -0.117405    -1.198184
H      0.617654    -1.402515    -0.015595
H      1.779906     1.033506     0.330084
9
Iteration 2, Energy=-154.0860846868, |grad|=0.014129
C     -0.976153     0.054511     0.030372
C      0.490270    -0.331176    -0.173151
O      1.350274     0.305554     0.741346
H     -1.345762     0.747466    -0.733449
H     -1.628222    -0.821957     0.015372
H     -1.088386     0.535496     1.004344
H      0.806840    -0.123462    -1.198516
H      0.615292    -1.404803    -0.016344
H      1.775846     1.038371     0.330025
9
Iteration 3, Energy=-154.0861938558, |grad|=0.019303
C     -0.972940     0.053201     0.034639
C      0.490891    -0.333048    -0.171924
O      1.350322     0.306741     0.738365
H     -1.335240     0.752593    -0.724820
H     -1.626393    -0.821279     0.004225
H     -1.091206     0.535669     1.007862
H      0.804117    -0.134328    -1.200232
H      0.612077    -1.408864    -0.016150
H      1.768372     1.049314     0.328034
9
Iteration 4, Energy=-154.0863281009, |grad|=0.019805
C     -0.969211     0.053445     0.040207
C      0.491693    -0.339449    -0.169597
O      1.355035     0.312665     0.731446
H     -1.317962     0.762525    -0.711517
H     -1.623841    -0.820179    -0.013760
H     -1.095249     0.533216     1.014150
H      0.799524    -0.151887    -1.203281
H      0.607655    -1.413863    -0.014183
H      1.752356     1.063527     0.326535
9
Iteration 0, Energy=-154.0233734980, |grad|=0.535829
C     -1.005000     0.094681     0.010639
C      0.388172    -0.221760    -0.105019
O      1.307628     0.298878     0.653335
H     -1.328726     0.667583    -0.748664
H     -1.671809    -0.808737     0.107523
H     -1.040348     0.519658     0.987509
H      0.860095    -0.209912    -1.318353
H      0.613456    -1.345846     0.026039
H      1.879443     0.948677     0.384185
9
Iteration -1, Energy=-154.0863281009, |grad|=0.019805
C     -0.969211     0.053445     0.040207
C      0.491693    -0.339449    -0.169597
O      1.355035     0.312665     0.731446
H     -1.317962     0.762525    -0.711517
H     -1.623841    -0.820179    -0.013760
H     -1.095249     0.533216     1.014150
H      0.799524    -0.151887    -1.203281
H      0.607655    -1.413863    -0.014183
H      1.752356     1.063527     0.326535
9
Iteration 0, Energy=-154.0864181960, |grad|=0.026360
C     -0.973739     0.056865     0.038188
C      0.494543    -0.340611    -0.168995
O      1.355158     0.306477     0.732479
H     -1.317796     0.765164    -0.713003
H     -1.624087    -0.818925    -0.013094
H     -1.093940     0.527729     1.014485
H      0.798953    -0.151692    -1.203085
H      0.609709    -1.412197    -0.010183
H      1.751199     1.067189     0.323207
9
Iteration 1, Energy=-154.0865155175, |grad|=0.015555
C     -0.973881     0.057293     0.037266
C      0.493912    -0.340773    -0.168957
O      1.357492     0.307167     0.731519
H     -1.317993     0.766916    -0.714035
H     -1.624502    -0.818362    -0.012978
H     -1.093511     0.525440     1.015058
H      0.798879    -0.151702    -1.203036
H      0.610589    -1.411990    -0.008274
H      1.749015     1.066010     0.323436
9
Iteration 2, Energy=-154.0866646141, |grad|=0.011495
C     -0.974536     0.059362     0.033651
C      0.492651    -0.340910    -0.168521
O      1.364038     0.305325     0.729015
H     -1.318572     0.773902    -0.717738
H     -1.626277    -0.815959    -0.012843
H     -1.091780     0.515979     1.017321
H      0.798483    -0.152027    -1.202738
H      0.614096    -1.411021    -0.000242
H      1.741897     1.065348     0.322096
9
Iteration 3, Energy=-154.0867353348, |grad|=0.010806
C     -0.973285     0.060468     0.031431
C      0.492074    -0.341193    -0.168263
O      1.367653     0.302363     0.726813
H     -1.318528     0.779122    -0.719068
H     -1.628001    -0.813683    -0.014200
H     -1.090764     0.508984     1.019219
H      0.798318    -0.153245    -1.202371
H      0.615989    -1.410325     0.006137
H      1.736543     1.067510     0.320302
9
Iteration 4, Energy=-154.0868700267, |grad|=0.014273
C     -0.972566     0.063465     0.028121
C      0.494287    -0.344635    -0.168175
O      1.375511     0.297910     0.719619
H     -1.315762     0.789286    -0.716611
H     -1.631209    -0.806684    -0.021327
H     -1.088682     0.493734     1.023014
H      0.798302    -0.158928    -1.201944
H      0.617708    -1.408978     0.020301
H      1.722409     1.074830     0.317002
9
Iteration 0, Energy=-154.0288861050, |grad|=0.567559
C     -0.907581     0.011799    -0.027202
C      0.418050    -0.263270    -0.136140
O      1.282953     0.246014     0.803195
H     -1.290575     0.717597    -0.688289
H     -1.640572    -0.887628    -0.030312
H     -1.031837     0.540945     0.989974
H      0.697730    -0.232129    -1.238661
H      0.530638    -1.338504    -0.114784
H      1.787625     1.069062     0.348033
9
Iteration -1, Energy=-154.0868700267, |grad|=0.014273
C     -0.972566     0.063465     0.028121
C      0.494287    -0.344635    -0.168175
O      1.375511     0.297910     0.719619
H     -1.315762     0.789286    -0.716611
H     -1.631209    -0.806684    -0.021327
H     -1.088682     0.493734     1.023014
H      0.798302    -0.158928    -1.201944
H      0.617708    -1.408978     0.020301
H      1.722409     1.074830     0.317002
9
Iteration 0, Energy=-154.0869499029, |grad|=0.023998
C     -0.968993     0.061177     0.031068
C      0.493342    -0.343214    -0.168027
O      1.373605     0.296820     0.719891
H     -1.313116     0.789536    -0.711749
H     -1.631514    -0.806235    -0.026696
H     -1.089309     0.495670     1.023827
H      0.799216    -0.163435    -1.203842
H      0.615076    -1.412188     0.019855
H      1.721693     1.081869     0.315673
9
Iteration 1, Energy=-154.0870470516, |grad|=0.014857
C     -0.968112     0.060579     0.032380
C      0.493525    -0.344457    -0.168165
O      1.374200     0.299612     0.718543
H     -1.311215     0.789670    -0.708464
H     -1.631466    -0.805879    -0.030021
H     -1.089599     0.496555     1.024486
H      0.799602    -0.166283    -1.204701
H      0.613318    -1.413178     0.019466
H      1.719746     1.083381     0.316477
9
Iteration 2, Energy=-154.0871875099, |grad|=0.010650
C     -0.966246     0.059010     0.036431
C      0.495713    -0.348312    -0.168611
O      1.374861     0.305733     0.714565
H     -1.304411     0.791170    -0.697606
H     -1.631097    -0.804536    -0.041338
H     -1.090355     0.498555     1.027139
H      0.800426    -0.176559    -1.207021
H      0.607806    -1.416164     0.018845
H      1.713302     1.091103     0.317597
9
Iteration 3, Energy=-154.0872659718, |grad|=0.012421
C     -0.965389     0.058629     0.037743
C      0.496659    -0.349725    -0.168514
O      1.375982     0.307265     0.711926
H     -1.300358     0.795071    -0.693142
H     -1.630832    -0.803715    -0.047396
H     -1.090306     0.497026     1.029523
H      0.800216    -0.183171    -1.207667
H      0.606159    -1.417517     0.020266
H      1.707869     1.096137     0.317261
9
Iteration 4, Energy=-154.0879345582, |grad|=0.032345
C     -0.954722     0.062880     0.046477
C      0.500140    -0.367773    -0.163690
O      1.393081     0.317854     0.683295
H     -1.255817     0.842707    -0.647501
H     -1.628484    -0.793125    -0.110495
H     -1.088388     0.468120     1.054424
H      0.796905    -0.253316    -1.216482
H      0.594281    -1.429024     0.043693
H      1.643003     1.151677     0.310279
9
Iteration 0, Energy=-153.9790646571, |grad|=0.809040
C     -0.865664     0.123479     0.110167
C      0.398538    -0.232113    -0.272830
O      1.218182     0.382065     0.820558
H     -1.368101     0.703938    -0.657613
H     -1.541745    -0.798655     0.079909
H     -0.980779     0.499454     0.949714
H      0.817278    -0.212414    -1.161160
H      0.598933    -1.456857    -0.062353
H      1.882569     1.146850     0.436147
9
Iteration -1, Energy=-154.0879345582, |grad|=0.032345
C     -0.954722     0.062880     0.046477
C      0.500140    -0.367773    -0.163690
O      1.393081     0.317854     0.683295
H     -1.255817     0.842707    -0.647501
H     -1.628484    -0.793125    -0.110495
H     -1.088388     0.468120     1.054424
H      0.796905    -0.253316    -1.216482
H      0.594281    -1.429024     0.043693
H      1.643003     1.151677     0.310279
9
Iteration 0, Energy=-154.0882287152, |grad|=0.026992
C     -0.955042     0.058919     0.044642
C      0.499888    -0.360733    -0.166618
O      1.394771     0.314746     0.681468
H     -1.256325     0.846982    -0.650912
H     -1.626830    -0.787294    -0.108110
H     -1.088065     0.461721     1.053907
H      0.794944    -0.252255    -1.213839
H      0.597679    -1.430832     0.050250
H      1.638980     1.148746     0.309212
9
Iteration 1, Energy=-154.0884518122, |grad|=0.021363
C     -0.954425     0.061247     0.041988
C      0.499606    -0.361499    -0.166045
O      1.396366     0.312239     0.679577
H     -1.256471     0.849500    -0.652612
H     -1.626912    -0.784205    -0.106511
H     -1.087699     0.455006     1.053214
H      0.793591    -0.250600    -1.213385
H      0.600617    -1.428630     0.055618
H      1.635327     1.146943     0.308156
9
Iteration 2, Energy=-154.0886885192, |grad|=0.037733
C     -0.949261     0.069988     0.034862
C      0.499791    -0.367100    -0.167530
O      1.405068     0.299324     0.676932
H     -1.255072     0.863129    -0.658373
H     -1.632055    -0.775026    -0.106852
H     -1.086270     0.429078     1.055204
H      0.788476    -0.247342    -1.214059
H      0.609943    -1.421958     0.079466
H      1.619380     1.149906     0.300350
9
Iteration 3, Energy=-154.0888259896, |grad|=0.025512
C     -0.950662     0.071295     0.032129
C      0.500717    -0.369413    -0.164719
O      1.409283     0.305612     0.670332
H     -1.253285     0.865990    -0.657554
H     -1.632507    -0.771148    -0.108567
H     -1.085546     0.422696     1.056323
H      0.787878    -0.247726    -1.215650
H      0.611295    -1.421020     0.085080
H      1.612826     1.143714     0.302626
9
Iteration 4, Energy=-154.0889089519, |grad|=0.010397
C     -0.951083     0.069786     0.034125
C      0.501060    -0.368089    -0.164991
O      1.407199     0.304803     0.671862
H     -1.252947     0.864174    -0.656014
H     -1.632240    -0.772877    -0.109783
H     -1.085762     0.426912     1.056371
H      0.788738    -0.249177    -1.215591
H      0.609459    -1.422589     0.081614
H      1.615575     1.147057     0.302407
9
Iteration 0, Energy=-154.0026241341, |grad|=0.940170
C     -0.987446    -0.002233     0.093549
C      0.516310    -0.296105    -0.092500
O      1.207489     0.302553     0.653548
H     -1.265485     0.732010    -0.699740
H     -1.544483    -0.955039    -0.006425
H     -1.127640     0.574493     1.083158
H      0.740205    -0.172148    -1.320418
H      0.546382    -1.437068     0.011177
H      1.765924     1.139959     0.428676
9
Iteration -1, Energy=-154.0889089519, |grad|=0.010397
C     -0.951083     0.069786     0.034125
C      0.501060    -0.368089    -0.164991
O      1.407199     0.304803     0.671862
H     -1.252947     0.864174    -0.656014
H     -1.632240    -0.772877    -0.109783
H     -1.085762     0.426912     1.056371
H      0.788738    -0.249177    -1.215591
H      0.609459    -1.422589     0.081614
H      1.615575     1.147057     0.302407
9
Iteration 0, Energy=-154.0889789616, |grad|=0.022953
C     -0.951175     0.067619     0.036628
C      0.501645    -0.366182    -0.164979
O      1.406460     0.303759     0.668775
H     -1.248757     0.865263    -0.650395
H     -1.632442    -0.770739    -0.116483
H     -1.085485     0.426264     1.057394
H      0.789216    -0.255176    -1.215097
H      0.607631    -1.425150     0.082848
H      1.612908     1.154341     0.301308
9
Iteration 1, Energy=-154.0890799686, |grad|=0.016298
C     -0.950622     0.066903     0.037904
C      0.501357    -0.367366    -0.164720
O      1.407400     0.306531     0.665806
H     -1.245694     0.866364    -0.646220
H     -1.632887    -0.769578    -0.121505
H     -1.085383     0.425494     1.058562
H      0.789533    -0.259518    -1.215138
H      0.606237    -1.425909     0.083631
H      1.610058     1.157079     0.301681
9
Iteration 2, Energy=-154.0893279354, |grad|=0.015040
C     -0.946837     0.064367     0.042812
C      0.500718    -0.374148    -0.163542
O      1.411823     0.316111     0.653885
H     -1.231153     0.874117    -0.627317
H     -1.635413    -0.764325    -0.145274
H     -1.085197     0.419944     1.065353
H      0.790083    -0.280588    -1.215930
H      0.600491    -1.428371     0.088836
H      1.595486     1.172894     0.301179
9
Iteration 3, Energy=-154.0895194540, |grad|=0.020307
C     -0.944589     0.062727     0.044954
C      0.502229    -0.376885    -0.163430
O      1.416292     0.321893     0.645716
H     -1.220267     0.884667    -0.615524
H     -1.636463    -0.758938    -0.161663
H     -1.085310     0.411287     1.071139
H      0.788550    -0.296744    -1.217055
H      0.598500    -1.430909     0.096498
H      1.581058     1.182902     0.299365
9
Iteration 4, Energy=-154.0902686462, |grad|=0.035122
C     -0.930943     0.062666     0.052642
C      0.510630    -0.396736    -0.158150
O      1.440755     0.346467     0.600617
H     -1.159279     0.946921    -0.550861
H     -1.641367    -0.727735    -0.250054
H     -1.086309     0.353872     1.101761
H      0.778113    -0.385076    -1.225996
H      0.592104    -1.440291     0.144449
H      1.496295     1.239912     0.285592
9
Iteration 0, Energy=-154.0516522422, |grad|=0.372485
C     -0.944226     0.030911     0.096976
C      0.459957    -0.323523    -0.218238
O      1.350762     0.394783     0.706080
H     -1.294510     0.668954    -0.787460
H     -1.581419    -0.944065     0.120833
H     -1.150485     0.507270     1.104881
H      0.756386    -0.061501    -1.259380
H      0.513573    -1.526047    -0.007739
H      1.749019     1.120280     0.387315
9
Iteration -1, Energy=-154.0902686462, |grad|=0.035122
C     -0.930943     0.062666     0.052642
C      0.510630    -0.396736    -0.158150
O      1.440755     0.346467     0.600617
H     -1.159279     0.946921    -0.550861
H     -1.641367    -0.727735    -0.250054
H     -1.086309     0.353872     1.101761
H      0.778113    -0.385076    -1.225996
H      0.592104    -1.440291     0.144449
H      1.496295     1.239912     0.285592
9
Iteration 0, Energy=-154.0908939526, |grad|=0.027020
C     -0.933232     0.067181     0.047306
C      0.510518    -0.391851    -0.160443
O      1.436716     0.339868     0.595994
H     -1.158590     0.947621    -0.551236
H     -1.633798    -0.717626    -0.242212
H     -1.087198     0.341715     1.094880
H      0.774675    -0.381509    -1.221426
H      0.599723    -1.437524     0.153597
H      1.491186     1.232126     0.283540
9
Iteration 1, Energy=-154.0912333381, |grad|=0.015511
C     -0.926080     0.073231     0.043692
C      0.504732    -0.395801    -0.158627
O      1.435607     0.335098     0.593327
H     -1.159289     0.953370    -0.554476
H     -1.630182    -0.710925    -0.235930
H     -1.088985     0.327343     1.089327
H      0.771489    -0.376780    -1.221184
H      0.608039    -1.429416     0.163406
H      1.484668     1.223881     0.280465
9
Iteration 2, Energy=-154.0913111146, |grad|=0.016609
C     -0.924448     0.073822     0.041918
C      0.506836    -0.395474    -0.160338
O      1.437163     0.330947     0.595295
H     -1.158840     0.959375    -0.557004
H     -1.631017    -0.709660    -0.235817
H     -1.090097     0.321346     1.091473
H      0.769013    -0.375679    -1.222102
H      0.610782    -1.428523     0.169787
H      1.480608     1.223847     0.276789
9
Iteration 3, Energy=-154.0913631954, |grad|=0.007699
C     -0.925039     0.074586     0.041549
C      0.508577    -0.396338    -0.160122
O      1.438637     0.333040     0.595176
H     -1.157998     0.961579    -0.557243
H     -1.632048    -0.709726    -0.237197
H     -1.090348     0.319246     1.093022
H      0.768261    -0.375770    -1.223462
H      0.611109    -1.428654     0.172122
H      1.478849     1.222036     0.276156
9
Iteration 4, Energy=-154.0913906250, |grad|=0.007264
C     -0.925764     0.075410     0.041692
C      0.509873    -0.397021    -0.159112
O      1.439982     0.334168     0.594717
H     -1.156555     0.963415    -0.556566
H     -1.633097    -0.709472    -0.239492
H     -1.090497     0.316915     1.094215
H      0.767779    -0.376344    -1.224978
H      0.611281    -1.428923     0.174544
H      1.476999     1.221852     0.274979
9
Iteration 0, Energy=-153.9728903695, |grad|=1.135419
C     -0.873905    -0.013351     0.033506
C      0.473841    -0.266760    -0.157624
O      1.272977     0.394870     0.644680
H     -1.296627     0.651564    -0.825683
H     -1.657298    -0.956679    -0.018570
H     -1.044444     0.693212     0.920346
H      0.801861    -0.173801    -1.313756
H      0.501642    -1.377992    -0.136052
H      1.760618     0.959446     0.453595
9
Iteration -1, Energy=-154.0913906250, |grad|=0.007264
C     -0.925764     0.075410     0.041692
C      0.509873    -0.397021    -0.159112
O      1.439982     0.334168     0.594717
H     -1.156555     0.963415    -0.556566
H     -1.633097    -0.709472    -0.239492
H     -1.090497     0.316915     1.094215
H      0.767779    -0.376344    -1.224978
H      0.611281    -1.428923     0.174544
H      1.476999     1.221852     0.274979
9
Iteration 0, Energy=-154.0914223721, |grad|=0.016537
C     -0.925512     0.074006     0.043306
C      0.507270    -0.396375    -0.158457
O      1.440202     0.333119     0.592075
H     -1.153180     0.963134    -0.551954
H     -1.632666    -0.706509    -0.244295
H     -1.090637     0.314645     1.093524
H      0.768164    -0.379115    -1.223442
H      0.610880    -1.429494     0.176399
H      1.475479     1.226588     0.272845
9
Iteration 1, Energy=-154.0914682519, |grad|=0.010123
C     -0.925383     0.073590     0.043722
C      0.506650    -0.397213    -0.158079
O      1.440525     0.335323     0.589904
H     -1.151270     0.963383    -0.549392
H     -1.632689    -0.705111    -0.247164
H     -1.090890     0.313242     1.093838
H      0.768125    -0.380740    -1.222661
H      0.610502    -1.429406     0.177405
H      1.474429     1.226931     0.272427
9
Iteration 2, Energy=-154.0915478200, |grad|=0.012005
C     -0.924740     0.072058     0.045060
C      0.505831    -0.399422    -0.156831
O      1.441327     0.340472     0.583282
H     -1.144579     0.965303    -0.540778
H     -1.633159    -0.700525    -0.257405
H     -1.092024     0.307969     1.095642
H      0.767594    -0.386736    -1.220223
H      0.609334    -1.429281     0.181429
H      1.470416     1.230162     0.269824
9
Iteration 3, Energy=-154.0916355192, |grad|=0.016723
C     -0.923616     0.070309     0.046588
C      0.506387    -0.401682    -0.155424
O      1.442517     0.345581     0.576380
H     -1.136330     0.969761    -0.530830
H     -1.634284    -0.695349    -0.270260
H     -1.093903     0.300493     1.098874
H      0.766289    -0.394699    -1.218190
H      0.608294    -1.429363     0.187317
H      1.464648     1.234948     0.265544
9
Iteration 4, Energy=-154.0918804800, |grad|=0.023599
C     -0.920526     0.066664     0.050879
C      0.508543    -0.407814    -0.150843
O      1.447672     0.360003     0.558048
H     -1.110604     0.987488    -0.500843
H     -1.637172    -0.678949    -0.309264
H     -1.100735     0.273690     1.108883
H      0.761173    -0.420669    -1.215171
H      0.607219    -1.430027     0.208118
H      1.444430     1.249615     0.250191
9
Iteration 0, Energy=-154.0032220312, |grad|=0.761512
C     -0.858593     0.122130     0.017464
C      0.418118    -0.256762    -0.100554
O      1.235131     0.297080     0.678204
H     -1.419474     0.775462    -0.793239
H     -1.577005    -0.914316     0.000726
H     -1.155885     0.516133     1.053357
H      0.708909    -0.171601    -1.188072
H      0.511910    -1.345413    -0.142987
H      1.782522     1.010707     0.309458
9
Iteration -1, Energy=-154.0918804800, |grad|=0.023599
C     -0.920526     0.066664     0.050879
C      0.508543    -0.407814    -0.150843
O      1.447672     0.360003     0.558048
H     -1.110604     0.987488    -0.500843
H     -1.637172    -0.678949    -0.309264
H     -1.100735     0.273690     1.108883
H      0.761173    -0.420669    -1.215171
H      0.607219    -1.430027     0.208118
H      1.444430     1.249615     0.250191
9
Iteration 0, Energy=-154.0919655475, |grad|=0.018392
C     -0.920668     0.067471     0.050497
C      0.509466    -0.405858    -0.151157
O      1.447449     0.354767     0.560641
H     -1.110778     0.989854    -0.501539
H     -1.636345    -0.678328    -0.308027
H     -1.101478     0.271399     1.108441
H      0.760368    -0.421364    -1.216509
H      0.608922    -1.430272     0.209891
H      1.443064     1.252332     0.247761
9
Iteration 1, Energy=-154.0920162391, |grad|=0.012822
C     -0.920519     0.068365     0.050103
C      0.509630    -0.406128    -0.151242
O      1.447571     0.355560     0.561088
H     -1.110898     0.991192    -0.501804
H     -1.635899    -0.678034    -0.307374
H     -1.101975     0.269956     1.108252
H      0.759909    -0.421716    -1.217278
H      0.609825    -1.429933     0.210717
H      1.442357     1.250737     0.247537
9
Iteration 2, Energy=-154.0921305251, |grad|=0.006788
C     -0.919334     0.073102     0.047828
C      0.510904    -0.406817    -0.151620
O      1.447490     0.356195     0.563792
H     -1.111442     0.998607    -0.502908
H     -1.633454    -0.676234    -0.304077
H     -1.104811     0.261859     1.107288
H      0.757374    -0.423821    -1.220910
H      0.614910    -1.427953     0.215495
H      1.438363     1.245061     0.245113
9
Iteration 3, Energy=-154.0921535091, |grad|=0.004914
C     -0.918131     0.074295     0.047086
C      0.511057    -0.407189    -0.151788
O      1.446644     0.355414     0.563276
H     -1.111176     1.001420    -0.502027
H     -1.632466    -0.674906    -0.304091
H     -1.106052     0.258399     1.106929
H      0.756616    -0.425086    -1.220615
H      0.616687    -1.426657     0.217602
H      1.436820     1.244310     0.243629
9
Iteration 4, Energy=-154.0921869467, |grad|=0.005945
C     -0.917679     0.075444     0.046422
C      0.510520    -0.406914    -0.151401
O      1.446229     0.355150     0.561198
H     -1.109340     1.006018    -0.498128
H     -1.630605    -0.671454    -0.306701
H     -1.108044     0.251698     1.106258
H      0.755917    -0.428574    -1.220121
H      0.619193    -1.425472     0.222232
H      1.433809     1.244106     0.240242
9
Iteration 0, Energy=-154.0516460191, |grad|=0.389001
C     -1.021384    -0.003457     0.002626
C      0.532927    -0.339616    -0.235805
O      1.257476     0.402928     0.660464
H     -1.415540     0.641891    -0.807653
H     -1.505300    -0.910209    -0.016854
H     -1.033881     0.604125     0.937609
H      0.754766    -0.068370    -1.177490
H      0.586444    -1.373220    -0.139494
H      1.799610     1.093851     0.487704
9
Iteration -1, Energy=-154.0921869467, |grad|=0.005945
C     -0.917679     0.075444     0.046422
C      0.510520    -0.406914    -0.151401
O      1.446229     0.355150     0.561198
H     -1.109340     1.006018    -0.498128
H     -1.630605    -0.671454    -0.306701
H     -1.108044     0.251698     1.106258
H      0.755917    -0.428574    -1.220121
H      0.619193    -1.425472     0.222232
H      1.433809     1.244106     0.240242
9
Iteration 0, Energy=-154.0922042526, |grad|=0.008397
C     -0.917227     0.075589     0.047145
C      0.510715    -0.408954    -0.151079
O      1.447089     0.357086     0.560208
H     -1.108316     1.005871    -0.496100
H     -1.631910    -0.671735    -0.309939
H     -1.108223     0.251453     1.107308
H      0.756138    -0.429584    -1.219645
H      0.617968    -1.424999     0.222409
H      1.433767     1.245274     0.239692
9
Iteration 1, Energy=-154.0922236261, |grad|=0.006312
C     -0.917371     0.074554     0.047635
C      0.510987    -0.408882    -0.150871
O      1.447635     0.357661     0.559337
H     -1.107262     1.006084    -0.494296
H     -1.632527    -0.671258    -0.312635
H     -1.108401     0.251059     1.108187
H      0.756312    -0.430721    -1.219209
H      0.617057    -1.425415     0.223057
H      1.433570     1.246919     0.238795
9
Iteration 2, Energy=-154.0922594988, |grad|=0.007183
C     -0.918537     0.070910     0.049219
C      0.511544    -0.408146    -0.149548
O      1.449357     0.361762     0.554956
H     -1.102910     1.007146    -0.486927
H     -1.633760    -0.668245    -0.322453
H     -1.109287     0.248258     1.110710
H      0.756871    -0.435474    -1.217877
H      0.614250    -1.427039     0.226184
H      1.432472     1.250828     0.235736
9
Iteration 3, Energy=-154.0922843093, |grad|=0.009941
C     -0.918420     0.070867     0.050107
C      0.511334    -0.408869    -0.148564
O      1.449781     0.362241     0.552617
H     -1.099780     1.008457    -0.481447
H     -1.633775    -0.665557    -0.328472
H     -1.110550     0.244063     1.111288
H      0.756734    -0.439126    -1.216965
H      0.613734    -1.426605     0.229126
H      1.430943     1.254528     0.232311
9
Iteration 4, Energy=-154.0923184009, |grad|=0.010952
C     -0.918005     0.070831     0.050565
C      0.510838    -0.409409    -0.147964
O      1.449927     0.363773     0.550176
H     -1.096866     1.010653    -0.476502
H     -1.633119    -0.662413    -0.333476
H     -1.112135     0.239083     1.111605
H      0.756248    -0.442765    -1.216093
H      0.613967    -1.425986     0.232469
H      1.429144     1.256233     0.229220
9
Iteration 0, Energy=-154.0306663298, |grad|=0.435388
C     -1.026538    -0.019406     0.023372
C      0.403046    -0.238717    -0.173884
O      1.360514     0.293529     0.807033
H     -1.265518     0.725991    -0.655433
H     -1.650592    -0.921221    -0.031354
H     -1.138553     0.570413     0.995975
H      0.734716    -0.046688    -1.308991
H      0.574076    -1.524817    -0.007801
H      1.814333     1.133878     0.417996
9
Iteration -1, Energy=-154.0923184009, |grad|=0.010952
C     -0.918005     0.070831     0.050565
C      0.510838    -0.409409    -0.147964
O      1.449927     0.363773     0.550176
H     -1.096866     1.010653    -0.476502
H     -1.633119    -0.662413    -0.333476
H     -1.112135     0.239083     1.111605
H      0.756248    -0.442765    -1.216093
H      0.613967    -1.425986     0.232469
H      1.429144     1.256233     0.229220
9
Iteration 0, Energy=-154.0923372635, |grad|=0.006221
C     -0.917660     0.070938     0.050276
C      0.510809    -0.409729    -0.148141
O      1.449828     0.365254     0.549865
H     -1.096863     1.011557    -0.476620
H     -1.632838    -0.662132    -0.333224
H     -1.112494     0.238271     1.111666
H      0.755936    -0.442963    -1.216136
H      0.614416    -1.425686     0.232887
H      1.428866     1.254489     0.229427
9
Iteration 1, Energy=-154.0923491175, |grad|=0.006308
C     -0.917286     0.071278     0.049958
C      0.510952    -0.409788    -0.148250
O      1.449563     0.365372     0.549916
H     -1.096796     1.012674    -0.476678
H     -1.632484    -0.661766    -0.332944
H     -1.112963     0.237099     1.111643
H      0.755524    -0.443282    -1.216245
H      0.615097    -1.425321     0.233546
H      1.428393     1.253733     0.229055
9
Iteration 2, Energy=-154.0923858017, |grad|=0.005551
C     -0.915976     0.073984     0.048797
C      0.511431    -0.410221    -0.148299
O      1.448502     0.364893     0.550443
H     -1.096017     1.017724    -0.476139
H     -1.630750    -0.659844    -0.332193
H     -1.115239     0.230759     1.110982
H      0.753617    -0.445172    -1.217091
H      0.618582    -1.423489     0.237093
H      1.425850     1.251367     0.226406
9
Iteration 3, Energy=-154.0923989044, |grad|=0.009911
C     -0.916023     0.073212     0.048350
C      0.510784    -0.409043    -0.148299
O      1.448805     0.365221     0.549715
H     -1.094018     1.021443    -0.473341
H     -1.629393    -0.656901    -0.334547
H     -1.117019     0.225846     1.111018
H      0.752666    -0.447752    -1.216859
H      0.620340    -1.423434     0.240722
H      1.423857     1.251407     0.223241
9
Iteration 4, Energy=-154.0924198792, |grad|=0.006958
C     -0.915818     0.074271     0.048425
C      0.510894    -0.409767    -0.147667
O      1.448758     0.365502     0.548970
H     -1.092664     1.023096    -0.471113
H     -1.629137    -0.655650    -0.336634
H     -1.118099     0.222740     1.110929
H      0.752144    -0.449330    -1.216776
H      0.621184    -1.422682     0.242634
H      1.422739     1.251821     0.221233
9
Iteration 0, Energy=-154.0266760065, |grad|=0.459620
C     -0.986456     0.145440     0.058193
C      0.450098    -0.225666    -0.102215
O      1.277402     0.403326     0.710279
H     -1.419273     0.805305    -0.728253
H     -1.612308    -0.961533     0.009572
H     -0.990475     0.670613     1.013227
H      0.848585    -0.217025    -1.311237
H      0.528247    -1.381117    -0.133476
H      1.925031     1.087568     0.381966
9
Iteration -1, Energy=-154.0924198792, |grad|=0.006958
C     -0.915818     0.074271     0.048425
C      0.510894    -0.409767    -0.147667
O      1.448758     0.365502     0.548970
H     -1.092664     1.023096    -0.471113
H     -1.629137    -0.655650    -0.336634
H     -1.118099     0.222740     1.110929
H      0.752144    -0.449330    -1.216776
H      0.621184    -1.422682     0.242634
H      1.422739     1.251821     0.221233
9
Iteration 0, Energy=-154.0924259609, |grad|=0.008833
C     -0.915444     0.075944     0.049189
C      0.511667    -0.411885    -0.146782
O      1.448578     0.366456     0.547918
H     -1.092072     1.022132    -0.469595
H     -1.630227    -0.656215    -0.338686
H     -1.118197     0.222561     1.111088
H      0.752319    -0.449692    -1.216478
H      0.620425    -1.421836     0.242369
H      1.422951     1.252536     0.220978
9
Iteration 1, Energy=-154.0924359809, |grad|=0.004128
C     -0.915576     0.074934     0.049095
C      0.511460    -0.411048    -0.147060
O      1.448734     0.366285     0.547952
H     -1.091955     1.022440    -0.469523
H     -1.630019    -0.655807    -0.338816
H     -1.118259     0.222558     1.111279
H      0.752325    -0.449870    -1.216336
H      0.620397    -1.422295     0.242640
H      1.422893     1.252802     0.220769
9
Iteration 2, Energy=-154.0924442292, |grad|=0.003144
C     -0.915698     0.073916     0.049265
C      0.511377    -0.410658    -0.147067
O      1.448989     0.366722     0.547431
H     -1.091399     1.022559    -0.468561
H     -1.630111    -0.655249    -0.340105
H     -1.118446     0.222363     1.111698
H      0.752424    -0.450426    -1.215983
H      0.619990    -1.422681     0.243044
H      1.422873     1.253455     0.220277
9
Iteration 3, Energy=-154.0924587668, |grad|=0.004965
C     -0.915950     0.072148     0.049945
C      0.511337    -0.410503    -0.146668
O      1.449600     0.368156     0.545793
H     -1.089674     1.022659    -0.465433
H     -1.630590    -0.653871    -0.344127
H     -1.119048     0.221430     1.112700
H      0.752690    -0.452108    -1.215106
H      0.618858    -1.423260     0.244154
H      1.422776     1.255350     0.218741
9
Iteration 4, Energy=-154.0924756220, |grad|=0.005817
C     -0.916179     0.070936     0.050753
C      0.511210    -0.410845    -0.145959
O      1.450246     0.370405     0.543653
H     -1.087191     1.023425    -0.461026
H     -1.630874    -0.651741    -0.349337
H     -1.120234     0.218860     1.113656
H      0.752748    -0.454706    -1.214219
H      0.618029    -1.423471     0.246176
H      1.422244     1.257137     0.216303
9
Iteration 0, Energy=-154.0063289158, |grad|=0.819170
C     -0.916094     0.073263     0.033846
C      0.507400    -0.239524    -0.129402
O      1.281255     0.243619     0.661935
H     -1.289453     0.751116    -0.682601
H     -1.574721    -0.931308     0.046763
H     -1.000941     0.510538     0.925907
H      0.873806    -0.144196    -1.305246
H      0.667745    -1.438680     0.027183
H      1.857234     1.008402     0.428972
9
Iteration -1, Energy=-154.0924756220, |grad|=0.005817
C     -0.916179     0.070936     0.050753
C      0.511210    -0.410845    -0.145959
O      1.450246     0.370405     0.543653
H     -1.087191     1.023425    -0.461026
H     -1.630874    -0.651741    -0.349337
H     -1.120234     0.218860     1.113656
H      0.752748    -0.454706    -1.214219
H      0.618029    -1.423471     0.246176
H      1.422244     1.257137     0.216303
9
Iteration 0, Energy=-154.0924832659, |grad|=0.004202
C     -0.915916     0.072500     0.050815
C      0.511519    -0.411929    -0.145476
O      1.449925     0.370309     0.543599
H     -1.087024     1.023640    -0.460639
H     -1.630932    -0.651835    -0.349528
H     -1.120521     0.217855     1.113366
H      0.752540    -0.454944    -1.214427
H      0.618423    -1.422651     0.246410
H      1.421986     1.257055     0.215880
9
Iteration 1, Energy=-154.0924882243, |grad|=0.003763
C     -0.915772     0.072746     0.050726
C      0.511528    -0.411892    -0.145508
O      1.449801     0.370276     0.543607
H     -1.086856     1.024264    -0.460437
H     -1.630715    -0.651530    -0.349586
H     -1.120827     0.217008     1.113283
H      0.752324    -0.455257    -1.214446
H      0.618814    -1.422467     0.246894
H      1.421703     1.256853     0.215466
9
Iteration 2, Energy=-154.0925113065, |grad|=0.010344
C     -0.915139     0.074314     0.049126
C      0.511196    -0.412591    -0.144248
O      1.449269     0.372420     0.542366
H     -1.083826     1.031567    -0.455907
H     -1.628076    -0.646771    -0.352585
H     -1.124667     0.206535     1.113173
H      0.750148    -0.459791    -1.214978
H      0.622661    -1.420109     0.253001
H      1.418434     1.254426     0.210054
9
Iteration 3, Energy=-154.0925263170, |grad|=0.008141
C     -0.914331     0.075552     0.049803
C      0.511541    -0.411922    -0.144677
O      1.448863     0.371248     0.542065
H     -1.081861     1.034984    -0.452793
H     -1.627561    -0.644710    -0.355593
H     -1.126704     0.201046     1.112749
H      0.749015    -0.462490    -1.214268
H      0.624359    -1.419541     0.256656
H      1.416680     1.255833     0.206057
9
Iteration 4, Energy=-154.0925390082, |grad|=0.005060
C     -0.914490     0.075065     0.050097
C      0.511528    -0.412152    -0.144537
O      1.449146     0.372145     0.541507
H     -1.081681     1.034274    -0.452249
H     -1.627987    -0.644815    -0.356504
H     -1.126513     0.201745     1.113015
H      0.749309    -0.462473    -1.214005
H      0.623664    -1.419798     0.256361
H      1.417024     1.256009     0.206316
9
Iteration 0, Energy=-154.0534028704, |grad|=0.349132
C     -0.927433     0.020955     0.048711
C      0.536581    -0.310966    -0.173281
O      1.274935     0.309066     0.712842
H     -1.318709     0.766781    -0.676874
H     -1.655768    -0.857767    -0.063087
H     -0.989004     0.684228     0.955752
H      0.861726    -0.044692    -1.303015
H      0.533609    -1.468341     0.025696
H      1.798280     1.016494     0.334386
9
Iteration -1, Energy=-154.0925390082, |grad|=0.005060
C     -0.914490     0.075065     0.050097
C      0.511528    -0.412152    -0.144537
O      1.449146     0.372145     0.541507
H     -1.081681     1.034274    -0.452249
H     -1.627987    -0.644815    -0.356504
H     -1.126513     0.201745     1.113015
H      0.749309    -0.462473    -1.214005
H      0.623664    -1.419798     0.256361
H      1.417024     1.256009     0.206316
9
Iteration 0, Energy=-154.0925475202, |grad|=0.006117
C     -0.914581     0.074609     0.050204
C      0.511595    -0.412917    -0.143937
O      1.449357     0.373725     0.540420
H     -1.081236     1.033620    -0.451082
H     -1.628425    -0.644630    -0.358030
H     -1.126543     0.202057     1.113527
H      0.749604    -0.462729    -1.213703
H      0.622861    -1.419748     0.256202
H      1.417368     1.256014     0.206400
9
Iteration 1, Energy=-154.0925562691, |grad|=0.004503
C     -0.914693     0.073944     0.050511
C      0.511675    -0.412963    -0.143713
O      1.449555     0.374005     0.539823
H     -1.080778     1.033157    -0.450019
H     -1.628790    -0.644371    -0.359479
H     -1.126593     0.202271     1.113900
H      0.749844    -0.463058    -1.213295
H      0.622201    -1.419976     0.256273
H      1.417580     1.256991     0.206000
9
Iteration 2, Energy=-154.0925679817, |grad|=0.004525
C     -0.915178     0.071645     0.052001
C      0.511408    -0.412465    -0.143790
O      1.450531     0.375729     0.538063
H     -1.078995     1.032420    -0.446341
H     -1.629609    -0.643027    -0.364375
H     -1.127073     0.201994     1.114732
H      0.750449    -0.464631    -1.211908
H      0.620486    -1.421114     0.257293
H      1.417982     1.259449     0.204325
9
Iteration 3, Energy=-154.0925730793, |grad|=0.004524
C     -0.915316     0.071742     0.051830
C      0.511681    -0.413172    -0.142652
O      1.450496     0.375730     0.537365
H     -1.078137     1.032454    -0.444504
H     -1.629726    -0.642285    -0.366307
H     -1.127628     0.200933     1.115287
H      0.750528    -0.465512    -1.211906
H      0.620189    -1.420673     0.257850
H      1.417911     1.260783     0.203038
9
Iteration 4, Energy=-154.0925928456, |grad|=0.002079
C     -0.914947     0.072257     0.051999
C      0.511696    -0.413163    -0.142696
O      1.450227     0.376954     0.536752
H     -1.076740     1.035118    -0.442263
H     -1.628981    -0.640435    -0.368349
H     -1.129365     0.196768     1.115321
H      0.749789    -0.467599    -1.211686
H      0.621342    -1.420083     0.260325
H      1.416978     1.260183     0.200597
9
Iteration 0, Energy=-154.0381451025, |grad|=0.462325
C     -0.879050     0.140720    -0.002755
C      0.479555    -0.395934    -0.230741
O      1.266382     0.373231     0.772515
H     -1.323273     0.791643    -0.659172
H     -1.607308    -0.894225    -0.024613
H     -1.120717     0.500480     1.079218
H      0.725616    -0.057076    -1.248066
H      0.591452    -1.395584     0.005559
H      1.763139     1.142604     0.360833
9
Iteration -1, Energy=-154.0925928456, |grad|=0.002079
C     -0.914947     0.072257     0.051999
C      0.511696    -0.413163    -0.142696
O      1.450227     0.376954     0.536752
H     -1.076740     1.035118    -0.442263
H     -1.628981    -0.640435    -0.368349
H     -1.129365     0.196768     1.115321
H      0.749789    -0.467599    -1.211686
H      0.621342    -1.420083     0.260325
H      1.416978     1.260183     0.200597
9
Iteration 0, Energy=-154.0926036170, |grad|=0.005158
C     -0.913985     0.073393     0.051180
C      0.511509    -0.413871    -0.141563
O      1.449685     0.376958     0.536038
H     -1.075478     1.038017    -0.439679
H     -1.628289    -0.638656    -0.370127
H     -1.131144     0.192051     1.115023
H      0.748826    -0.469387    -1.211311
H      0.622980    -1.418413     0.262812
H      1.415895     1.259906     0.197627
9
Iteration 1, Energy=-154.0926158353, |grad|=0.003883
C     -0.913663     0.074026     0.051164
C      0.511482    -0.413714    -0.141525
O      1.449416     0.378287     0.534983
H     -1.073587     1.041849    -0.436188
H     -1.627281    -0.636041    -0.372929
H     -1.133379     0.186056     1.114365
H      0.747596    -0.471938    -1.210366
H      0.624849    -1.417375     0.266531
H      1.414566     1.258851     0.193966
9
Iteration 2, Energy=-154.0926262026, |grad|=0.004493
C     -0.914009     0.074322     0.051414
C      0.511696    -0.413613    -0.141021
O      1.449541     0.379161     0.534114
H     -1.071663     1.044378    -0.432545
H     -1.626716    -0.633754    -0.376391
H     -1.135229     0.181405     1.114309
H      0.746919    -0.474301    -1.209964
H      0.625796    -1.416936     0.269655
H      1.413665     1.259338     0.190428
9
Iteration 3, Energy=-154.0926558651, |grad|=0.006088
C     -0.914634     0.074786     0.052362
C      0.512036    -0.414425    -0.138711
O      1.450289     0.384159     0.530321
H     -1.065108     1.051941    -0.419722
H     -1.625484    -0.626294    -0.389296
H     -1.141439     0.166757     1.115094
H      0.745156    -0.482214    -1.208740
H      0.627946    -1.415428     0.279523
H      1.411240     1.260717     0.179167
9
Iteration 4, Energy=-154.0926694994, |grad|=0.015928
C     -0.912213     0.071735     0.055479
C      0.512631    -0.415809    -0.135589
O      1.450148     0.392891     0.520375
H     -1.051674     1.066176    -0.391952
H     -1.623940    -0.610191    -0.418453
H     -1.154864     0.138590     1.117977
H      0.742037    -0.498615    -1.202011
H      0.630279    -1.411697     0.298628
H      1.407596     1.266919     0.155546
9
Iteration 0, Energy=-153.9921973155, |grad|=0.979002
C     -0.978682    -0.045868     0.075761
C      0.573828    -0.278839    -0.220622
O      1.316298     0.330709     0.675655
H     -1.360234     0.705372    -0.655032
H     -1.556888    -0.777966     0.030468
H     -1.076168     0.579887     1.100258
H      0.763300    -0.190235    -1.176402
H      0.624917    -1.473649    -0.140771
H      1.735826     0.967433     0.415668
9
Iteration -1, Energy=-154.0926694994, |grad|=0.015928
C     -0.912213     0.071735     0.055479
C      0.512631    -0.415809    -0.135589
O      1.450148     0.392891     0.520375
H     -1.051674     1.066176    -0.391952
H     -1.623940    -0.610191    -0.418453
H     -1.154864     0.138590     1.117977
H      0.742037    -0.498615    -1.202011
H      0.630279    -1.411697     0.298628
H      1.407596     1.266919     0.155546
9
Iteration 0, Energy=-154.0927034040, |grad|=0.004544
C     -0.912976     0.072616     0.054879
C      0.512502    -0.417121    -0.133934
O      1.450206     0.394663     0.519489
H     -1.051556     1.064819    -0.391265
H     -1.623729    -0.609938    -0.418528
H     -1.154730     0.138797     1.117924
H      0.742399    -0.498605    -1.202720
H      0.629936    -1.411114     0.297961
H      1.407948     1.265883     0.156194
9
Iteration 1, Energy=-154.0927078609, |grad|=0.003104
C     -0.913347     0.072654     0.054891
C      0.512365    -0.417112    -0.133531
O      1.450287     0.394612     0.519383
H     -1.051476     1.064001    -0.390853
H     -1.623635    -0.609711    -0.418681
H     -1.154663     0.139071     1.117770
H      0.742639    -0.498664    -1.202809
H      0.629686    -1.411137     0.297700
H      1.408143     1.266285     0.156129
9
Iteration 2, Energy=-154.0927132448, |grad|=0.002228
C     -0.913787     0.072091     0.055305
C      0.511921    -0.416821    -0.133318
O      1.450552     0.394992     0.519062
H     -1.051363     1.062335    -0.389980
H     -1.623593    -0.609226    -0.419253
H     -1.154619     0.139910     1.117517
H      0.743201    -0.498822    -1.202552
H      0.628949    -1.411430     0.297114
H      1.408739     1.266970     0.156104
9
Iteration 3, Energy=-154.0927155774, |grad|=0.001854
C     -0.913551     0.071189     0.055583
C      0.512100    -0.416939    -0.133184
O      1.450516     0.395229     0.518719
H     -1.051450     1.061348    -0.389363
H     -1.623991    -0.609131    -0.420104
H     -1.154878     0.140839     1.118045
H      0.743675    -0.498909    -1.202049
H      0.628053    -1.411480     0.296379
H      1.409528     1.267854     0.155975
9
Iteration 4, Energy=-154.0927160418, |grad|=0.001237
C     -0.913789     0.070883     0.055949
C      0.512205    -0.416575    -0.133489
O      1.450615     0.395704     0.518707
H     -1.051504     1.061194    -0.389239
H     -1.624151    -0.609221    -0.420423
H     -1.155030     0.141096     1.118190
H      0.743882    -0.498963    -1.201904
H      0.627815    -1.411924     0.296285
H      1.409958     1.267805     0.155925
9
Iteration 0, Energy=-154.0445534929, |grad|=0.466181
C     -0.989549     0.012477     0.103309
C      0.437927    -0.366904    -0.134035
O      1.314405     0.404893     0.787154
H     -1.300200     0.645845    -0.770409
H     -1.636704    -0.831820     0.113375
H     -1.039849     0.679573     1.100875
H      0.880774    -0.094526    -1.263808
H      0.587956    -1.337157    -0.079633
H      1.837153     1.019647     0.373746
9
Iteration -1, Energy=-154.0927160418, |grad|=0.001237
C     -0.913789     0.070883     0.055949
C      0.512205    -0.416575    -0.133489
O      1.450615     0.395704     0.518707
H     -1.051504     1.061194    -0.389239
H     -1.624151    -0.609221    -0.420423
H     -1.155030     0.141096     1.118190
H      0.743882    -0.498963    -1.201904
H      0.627815    -1.411924     0.296285
H      1.409958     1.267805     0.155925
9
Iteration 0, Energy=-154.0927162597, |grad|=0.000688
C     -0.913738     0.070925     0.055848
C      0.512148    -0.416710    -0.133341
O      1.450610     0.395512     0.518825
H     -1.051554     1.061266    -0.389254
H     -1.624162    -0.609270    -0.420402
H     -1.155089     0.141053     1.118269
H      0.743906    -0.498932    -1.201973
H      0.627850    -1.411815     0.296239
H      1.410028     1.267972     0.155789
9
Iteration 0, Energy=-154.0201471149, |grad|=0.599886
C     -0.999070     0.138258     0.141932
C      0.564226    -0.280013    -0.103977
O      1.273132     0.333131     0.792025
H     -1.299767     0.723110    -0.647066
H     -1.570994    -0.937225    -0.042101
H     -1.106099     0.571093     1.054517
H      0.714569    -0.062395    -1.262123
H      0.626789    -1.509394    -0.082967
H      1.857659     1.096415     0.367320
9
Iteration -1, Energy=-154.0927162597, |grad|=0.000688
C     -0.913738     0.070925     0.055848
C      0.512148    -0.416710    -0.133341
O      1.450610     0.395512     0.518825
H     -1.051554     1.061266    -0.389254
H     -1.624162    -0.609270    -0.420402
H     -1.155089     0.141053     1.118269
H      0.743906    -0.498932    -1.201973
H      0.627850    -1.411815     0.296239
H      1.410028     1.267972     0.155789
9
Iteration 0, Energy=-154.0927163065, |grad|=0.000481
C     -0.913746     0.070928     0.055856
C      0.512145    -0.416707    -0.133357
O      1.450607     0.395556     0.518827
H     -1.051566     1.061286    -0.389261
H     -1.624161    -0.609280    -0.420396
H     -1.155102     0.141040     1.118267
H      0.743908    -0.498925    -1.201966
H      0.627860    -1.411821     0.296242
H      1.410055     1.267923     0.155788
9
Iteration 0, Energy=-154.0041562233, |grad|=0.775976
C     -1.019870    -0.042852    -0.051909
C      0.539635    -0.284741    -0.237554
O      1.245424     0.337875     0.642382
H     -1.445087     0.817142    -0.684491
H     -1.527723    -0.806812     0.108522
H     -0.993088     0.545885     1.037308
H      0.738747    -0.059808    -1.318679
H      0.618485    -1.505907     0.011688
H      1.875441     1.098563     0.308952
