9
Iteration -1, Energy=-154.0837996503, |grad|=0.044117
C     -0.977020     0.054531     0.039344
C      0.487693    -0.332548    -0.192952
O      1.302254     0.336299     0.743792
H     -1.353582     0.729531    -0.729129
H     -1.591671    -0.850511     0.025441
H     -1.069217     0.581118     0.999619
H      0.788253    -0.138478    -1.230198
H      0.594696    -1.412625    -0.042175
H      1.818594     1.032682     0.386258
9
Iteration 0, Energy=-154.0843833249, |grad|=0.059413
C     -0.977280     0.053879     0.035312
C      0.484312    -0.325026    -0.187773
O      1.305233     0.320355     0.751886
H     -1.354690     0.731318    -0.731808
H     -1.597106    -0.844075     0.028915
H     -1.069673     0.569254     0.994917
H      0.790027    -0.136048    -1.225589
H      0.600639    -1.406722    -0.038040
H      1.818537     1.037066     0.372179
9
Iteration 1, Energy=-154.0849708820, |grad|=0.035094
C     -0.978177     0.054365     0.032267
C      0.483032    -0.324225    -0.185418
O      1.313796     0.319380     0.752837
H     -1.355398     0.732475    -0.733440
H     -1.600947    -0.840538     0.030813
H     -1.070298     0.562238     0.992956
H      0.791269    -0.133974    -1.221992
H      0.603824    -1.402234    -0.035695
H      1.812900     1.032512     0.367673
9
Iteration 2, Energy=-154.0855525641, |grad|=0.015882
C     -0.980572     0.055962     0.025149
C      0.485382    -0.322798    -0.179253
O      1.331056     0.312521     0.753421
H     -1.357325     0.736354    -0.738314
H     -1.612045    -0.832437     0.034509
H     -1.072982     0.545639     0.990668
H      0.794820    -0.127776    -1.211446
H      0.611494    -1.392164    -0.028851
H      1.800172     1.024698     0.354117
9
Iteration 3, Energy=-154.0857041185, |grad|=0.012918
C     -0.979866     0.055951     0.024226
C      0.487718    -0.323802    -0.177507
O      1.336536     0.309057     0.751367
H     -1.357812     0.739262    -0.740843
H     -1.617745    -0.830150     0.033355
H     -1.075975     0.541528     0.993742
H      0.798074    -0.123818    -1.206927
H      0.613990    -1.392890    -0.024920
H      1.795081     1.024862     0.347508
9
Iteration 4, Energy=-154.0858879114, |grad|=0.019755
C     -0.984349     0.059975     0.025899
C      0.492191    -0.332712    -0.172545
O      1.350274     0.301923     0.745186
H     -1.353411     0.743306    -0.740109
H     -1.629306    -0.822421     0.024813
H     -1.085134     0.532524     1.000771
H      0.809041    -0.114233    -1.198539
H      0.618760    -1.399964    -0.015309
H      1.781934     1.031603     0.329834
9
Iteration 0, Energy=-154.0378396116, |grad|=0.558825
C     -0.905691     0.116632     0.039997
C      0.578310    -0.366860    -0.179545
O      1.268780     0.271992     0.679680
H     -1.368089     0.650752    -0.829576
H     -1.586276    -0.793072     0.082127
H     -1.142159     0.512822     0.921933
H      0.749537    -0.122233    -1.212013
H      0.669900    -1.370585     0.010389
H      1.871588     1.014980     0.469821
9
Iteration -1, Energy=-154.0858879114, |grad|=0.019755
C     -0.984349     0.059975     0.025899
C      0.492191    -0.332712    -0.172545
O      1.350274     0.301923     0.745186
H     -1.353411     0.743306    -0.740109
H     -1.629306    -0.822421     0.024813
H     -1.085134     0.532524     1.000771
H      0.809041    -0.114233    -1.198539
H      0.618760    -1.399964    -0.015309
H      1.781934     1.031603     0.329834
9
Iteration 0, Energy=-154.0859565451, |grad|=0.009760
C     -0.981954     0.057697     0.026682
C      0.490914    -0.330743    -0.173223
O      1.350611     0.302731     0.744626
H     -1.352888     0.744321    -0.739948
H     -1.629267    -0.822193     0.023716
H     -1.085654     0.533271     1.001545
H      0.808783    -0.115457    -1.198207
H      0.618427    -1.401522    -0.015309
H      1.781028     1.031895     0.330117
9
Iteration 1, Energy=-154.0859975546, |grad|=0.009758
C     -0.979824     0.056415     0.027604
C      0.490388    -0.330369    -0.173284
O      1.350379     0.303304     0.743840
H     -1.351326     0.745188    -0.738538
H     -1.629111    -0.822165     0.021705
H     -1.086398     0.534042     1.002367
H      0.808331    -0.117405    -1.198184
H      0.617654    -1.402515    -0.015595
H      1.779906     1.033506     0.330084
9
Iteration 2, Energy=-154.0860846868, |grad|=0.014129
C     -0.976153     0.054511     0.030372
C      0.490270    -0.331176    -0.173151
O      1.350274     0.305554     0.741346
H     -1.345762     0.747466    -0.733449
H     -1.628222    -0.821957     0.015372
H     -1.088386     0.535496     1.004344
H      0.806840    -0.123462    -1.198516
H      0.615292    -1.404803    -0.016344
H      1.775846     1.038371     0.330025
9
Iteration 3, Energy=-154.0861938558, |grad|=0.019303
C     -0.972940     0.053201     0.034639
C      0.490891    -0.333048    -0.171924
O      1.350322     0.306741     0.738365
H     -1.335240     0.752593    -0.724820
H     -1.626393    -0.821279     0.004225
H     -1.091206     0.535669     1.007862
H      0.804117    -0.134328    -1.200232
H      0.612077    -1.408864    -0.016150
H      1.768372     1.049314     0.328034
9
Iteration 4, Energy=-154.0863281009, |grad|=0.019805
C     -0.969211     0.053445     0.040207
C      0.491693    -0.339449    -0.169597
O      1.355035     0.312665     0.731446
H     -1.317962     0.762525    -0.711517
H     -1.623841    -0.820179    -0.013760
H     -1.095249     0.533216     1.014150
H      0.799524    -0.151887    -1.203281
H      0.607655    -1.413863    -0.014183
H      1.752356     1.063527     0.326535
9
Iteration 0, Energy=-154.0233734980, |grad|=0.535829
C     -1.005000     0.094681     0.010639
C      0.388172    -0.221760    -0.105019
O      1.307628     0.298878     0.653335
H     -1.328726     0.667583    -0.748664
H     -1.671809    -0.808737     0.107523
H     -1.040348     0.519658     0.987509
H      0.860095    -0.209912    -1.318353
H      0.613456    -1.345846     0.026039
H      1.879443     0.948677     0.384185
9
Iteration -1, Energy=-154.0863281009, |grad|=0.019805
C     -0.969211     0.053445     0.040207
C      0.491693    -0.339449    -0.169597
O      1.355035     0.312665     0.731446
H     -1.317962     0.762525    -0.711517
H     -1.623841    -0.820179    -0.013760
H     -1.095249     0.533216     1.014150
H      0.799524    -0.151887    -1.203281
H      0.607655    -1.413863    -0.014183
H      1.752356     1.063527     0.326535
9
Iteration 0, Energy=-154.0864181960, |grad|=0.026360
C     -0.973739     0.056865     0.038188
C      0.494543    -0.340611    -0.168995
O      1.355158     0.306477     0.732479
H     -1.317796     0.765164    -0.713003
H     -1.624087    -0.818925    -0.013094
H     -1.093940     0.527729     1.014485
H      0.798953    -0.151692    -1.203085
H      0.609709    -1.412197    -0.010183
H      1.751199     1.067189     0.323207
9
Iteration 1, Energy=-154.0865155175, |grad|=0.015555
C     -0.973881     0.057293     0.037266
C      0.493912    -0.340773    -0.168957
O      1.357492     0.307167     0.731519
H     -1.317993     0.766916    -0.714035
H     -1.624502    -0.818362    -0.012978
H     -1.093511     0.525440     1.015058
H      0.798879    -0.151702    -1.203036
H      0.610589    -1.411990    -0.008274
H      1.749015     1.066010     0.323436
9
Iteration 2, Energy=-154.0866646141, |grad|=0.011495
C     -0.974536     0.059362     0.033651
C      0.492651    -0.340910    -0.168521
O      1.364038     0.305325     0.729015
H     -1.318572     0.773902    -0.717738
H     -1.626277    -0.815959    -0.012843
H     -1.091780     0.515979     1.017321
H      0.798483    -0.152027    -1.202738
H      0.614096    -1.411021    -0.000242
H      1.741897     1.065348     0.322096
9
Iteration 3, Energy=-154.0867353348, |grad|=0.010806
C     -0.973285     0.060468     0.031431
C      0.492074    -0.341193    -0.168263
O      1.367653     0.302363     0.726813
H     -1.318528     0.779122    -0.719068
H     -1.628001    -0.813683    -0.014200
H     -1.090764     0.508984     1.019219
H      0.798318    -0.153245    -1.202371
H      0.615989    -1.410325     0.006137
H      1.736543     1.067510     0.320302
9
Iteration 4, Energy=-154.0868700267, |grad|=0.014273
C     -0.972566     0.063465     0.028121
C      0.494287    -0.344635    -0.168175
O      1.375511     0.297910     0.719619
H     -1.315762     0.789286    -0.716611
H     -1.631209    -0.806684    -0.021327
H     -1.088682     0.493734     1.023014
H      0.798302    -0.158928    -1.201944
H      0.617708    -1.408978     0.020301
H      1.722409     1.074830     0.317002
9
Iteration 0, Energy=-154.0288861050, |grad|=0.567559
C     -0.907581     0.011799    -0.027202
C      0.418050    -0.263270    -0.136140
O      1.282953     0.246014     0.803195
H     -1.290575     0.717597    -0.688289
H     -1.640572    -0.887628    -0.030312
H     -1.031837     0.540945     0.989974
H      0.697730    -0.232129    -1.238661
H      0.530638    -1.338504    -0.114784
H      1.787625     1.069062     0.348033
9
Iteration -1, Energy=-154.0868700267, |grad|=0.014273
C     -0.972566     0.063465     0.028121
C      0.494287    -0.344635    -0.168175
O      1.375511     0.297910     0.719619
H     -1.315762     0.789286    -0.716611
H     -1.631209    -0.806684    -0.021327
H     -1.088682     0.493734     1.023014
H      0.798302    -0.158928    -1.201944
H      0.617708    -1.408978     0.020301
H      1.722409     1.074830     0.317002
9
Iteration 0, Energy=-154.0869499029, |grad|=0.023998
C     -0.968993     0.061177     0.031068
C      0.493342    -0.343214    -0.168027
O      1.373605     0.296820     0.719891
H     -1.313116     0.789536    -0.711749
H     -1.631514    -0.806235    -0.026696
H     -1.089309     0.495670     1.023827
H      0.799216    -0.163435    -1.203842
H      0.615076    -1.412188     0.019855
H      1.721693     1.081869     0.315673
9
Iteration 1, Energy=-154.0870470516, |grad|=0.014857
C     -0.968112     0.060579     0.032380
C      0.493525    -0.344457    -0.168165
O      1.374200     0.299612     0.718543
H     -1.311215     0.789670    -0.708464
H     -1.631466    -0.805879    -0.030021
H     -1.089599     0.496555     1.024486
H      0.799602    -0.166283    -1.204701
H      0.613318    -1.413178     0.019466
H      1.719746     1.083381     0.316477
9
Iteration 2, Energy=-154.0871875099, |grad|=0.010650
C     -0.966246     0.059010     0.036431
C      0.495713    -0.348312    -0.168611
O      1.374861     0.305733     0.714565
H     -1.304411     0.791170    -0.697606
H     -1.631097    -0.804536    -0.041338
H     -1.090355     0.498555     1.027139
H      0.800426    -0.176559    -1.207021
H      0.607806    -1.416164     0.018845
H      1.713302     1.091103     0.317597
9
Iteration 3, Energy=-154.0872659718, |grad|=0.012421
C     -0.965389     0.058629     0.037743
C      0.496659    -0.349725    -0.168514
O      1.375982     0.307265     0.711926
H     -1.300358     0.795071    -0.693142
H     -1.630832    -0.803715    -0.047396
H     -1.090306     0.497026     1.029523
H      0.800216    -0.183171    -1.207667
H      0.606159    -1.417517     0.020266
H      1.707869     1.096137     0.317261
9
Iteration 4, Energy=-154.0879345582, |grad|=0.032345
C     -0.954722     0.062880     0.046477
C      0.500140    -0.367773    -0.163690
O      1.393081     0.317854     0.683295
H     -1.255817     0.842707    -0.647501
H     -1.628484    -0.793125    -0.110495
H     -1.088388     0.468120     1.054424
H      0.796905    -0.253316    -1.216482
H      0.594281    -1.429024     0.043693
H      1.643003     1.151677     0.310279
9
Iteration 0, Energy=-153.9790646571, |grad|=0.809040
C     -0.865664     0.123479     0.110167
C      0.398538    -0.232113    -0.272830
O      1.218182     0.382065     0.820558
H     -1.368101     0.703938    -0.657613
H     -1.541745    -0.798655     0.079909
H     -0.980779     0.499454     0.949714
H      0.817278    -0.212414    -1.161160
H      0.598933    -1.456857    -0.062353
H      1.882569     1.146850     0.436147
9
Iteration -1, Energy=-154.0879345582, |grad|=0.032345
C     -0.954722     0.062880     0.046477
C      0.500140    -0.367773    -0.163690
O      1.393081     0.317854     0.683295
H     -1.255817     0.842707    -0.647501
H     -1.628484    -0.793125    -0.110495
H     -1.088388     0.468120     1.054424
H      0.796905    -0.253316    -1.216482
H      0.594281    -1.429024     0.043693
H      1.643003     1.151677     0.310279
9
Iteration 0, Energy=-154.0882287152, |grad|=0.026992
C     -0.955042     0.058919     0.044642
C      0.499888    -0.360733    -0.166618
O      1.394771     0.314746     0.681468
H     -1.256325     0.846982    -0.650912
H     -1.626830    -0.787294    -0.108110
H     -1.088065     0.461721     1.053907
H      0.794944    -0.252255    -1.213839
H      0.597679    -1.430832     0.050250
H      1.638980     1.148746     0.309212
9
Iteration 1, Energy=-154.0884518122, |grad|=0.021363
C     -0.954425     0.061247     0.041988
C      0.499606    -0.361499    -0.166045
O      1.396366     0.312239     0.679577
H     -1.256471     0.849500    -0.652612
H     -1.626912    -0.784205    -0.106511
H     -1.087699     0.455006     1.053214
H      0.793591    -0.250600    -1.213385
H      0.600617    -1.428630     0.055618
H      1.635327     1.146943     0.308156
9
Iteration 2, Energy=-154.0886885192, |grad|=0.037733
C     -0.949261     0.069988     0.034862
C      0.499791    -0.367100    -0.167530
O      1.405068     0.299324     0.676932
H     -1.255072     0.863129    -0.658373
H     -1.632055    -0.775026    -0.106852
H     -1.086270     0.429078     1.055204
H      0.788476    -0.247342    -1.214059
H      0.609943    -1.421958     0.079466
H      1.619380     1.149906     0.300350
9
Iteration 3, Energy=-154.0888259896, |grad|=0.025512
C     -0.950662     0.071295     0.032129
C      0.500717    -0.369413    -0.164719
O      1.409283     0.305612     0.670332
H     -1.253285     0.865990    -0.657554
H     -1.632507    -0.771148    -0.108567
H     -1.085546     0.422696     1.056323
H      0.787878    -0.247726    -1.215650
H      0.611295    -1.421020     0.085080
H      1.612826     1.143714     0.302626
9
Iteration 4, Energy=-154.0889089519, |grad|=0.010397
C     -0.951083     0.069786     0.034125
C      0.501060    -0.368089    -0.164991
O      1.407199     0.304803     0.671862
H     -1.252947     0.864174    -0.656014
H     -1.632240    -0.772877    -0.109783
H     -1.085762     0.426912     1.056371
H      0.788738    -0.249177    -1.215591
H      0.609459    -1.422589     0.081614
H      1.615575     1.147057     0.302407
9
Iteration 0, Energy=-154.0026241341, |grad|=0.940170
C     -0.987446    -0.002233     0.093549
C      0.516310    -0.296105    -0.092500
O      1.207489     0.302553     0.653548
H     -1.265485     0.732010    -0.699740
H     -1.544483    -0.955039    -0.006425
H     -1.127640     0.574493     1.083158
H      0.740205    -0.172148    -1.320418
H      0.546382    -1.437068     0.011177
H      1.765924     1.139959     0.428676
9
Iteration -1, Energy=-154.0889089519, |grad|=0.010397
C     -0.951083     0.069786     0.034125
C      0.501060    -0.368089    -0.164991
O      1.407199     0.304803     0.671862
H     -1.252947     0.864174    -0.656014
H     -1.632240    -0.772877    -0.109783
H     -1.085762     0.426912     1.056371
H      0.788738    -0.249177    -1.215591
H      0.609459    -1.422589     0.081614
H      1.615575     1.147057     0.302407
9
Iteration 0, Energy=-154.0889789616, |grad|=0.022953
C     -0.951175     0.067619     0.036628
C      0.501645    -0.366182    -0.164979
O      1.406460     0.303759     0.668775
H     -1.248757     0.865263    -0.650395
H     -1.632442    -0.770739    -0.116483
H     -1.085485     0.426264     1.057394
H      0.789216    -0.255176    -1.215097
H      0.607631    -1.425150     0.082848
H      1.612908     1.154341     0.301308
9
Iteration 1, Energy=-154.0890799686, |grad|=0.016298
C     -0.950622     0.066903     0.037904
C      0.501357    -0.367366    -0.164720
O      1.407400     0.306531     0.665806
H     -1.245694     0.866364    -0.646220
H     -1.632887    -0.769578    -0.121505
H     -1.085383     0.425494     1.058562
H      0.789533    -0.259518    -1.215138
H      0.606237    -1.425909     0.083631
H      1.610058     1.157079     0.301681
9
Iteration 2, Energy=-154.0893279354, |grad|=0.015040
C     -0.946837     0.064367     0.042812
C      0.500718    -0.374148    -0.163542
O      1.411823     0.316111     0.653885
H     -1.231153     0.874117    -0.627317
H     -1.635413    -0.764325    -0.145274
H     -1.085197     0.419944     1.065353
H      0.790083    -0.280588    -1.215930
H      0.600491    -1.428371     0.088836
H      1.595486     1.172894     0.301179
9
Iteration 3, Energy=-154.0895194540, |grad|=0.020307
C     -0.944589     0.062727     0.044954
C      0.502229    -0.376885    -0.163430
O      1.416292     0.321893     0.645716
H     -1.220267     0.884667    -0.615524
H     -1.636463    -0.758938    -0.161663
H     -1.085310     0.411287     1.071139
H      0.788550    -0.296744    -1.217055
H      0.598500    -1.430909     0.096498
H      1.581058     1.182902     0.299365
9
Iteration 4, Energy=-154.0902686462, |grad|=0.035122
C     -0.930943     0.062666     0.052642
C      0.510630    -0.396736    -0.158150
O      1.440755     0.346467     0.600617
H     -1.159279     0.946921    -0.550861
H     -1.641367    -0.727735    -0.250054
H     -1.086309     0.353872     1.101761
H      0.778113    -0.385076    -1.225996
H      0.592104    -1.440291     0.144449
H      1.496295     1.239912     0.285592
9
Iteration 0, Energy=-154.0516522422, |grad|=0.372485
C     -0.944226     0.030911     0.096976
C      0.459957    -0.323523    -0.218238
O      1.350762     0.394783     0.706080
H     -1.294510     0.668954    -0.787460
H     -1.581419    -0.944065     0.120833
H     -1.150485     0.507270     1.104881
H      0.756386    -0.061501    -1.259380
H      0.513573    -1.526047    -0.007739
H      1.749019     1.120280     0.387315
9
Iteration -1, Energy=-154.0902686462, |grad|=0.035122
C     -0.930943     0.062666     0.052642
C      0.510630    -0.396736    -0.158150
O      1.440755     0.346467     0.600617
H     -1.159279     0.946921    -0.550861
H     -1.641367    -0.727735    -0.250054
H     -1.086309     0.353872     1.101761
H      0.778113    -0.385076    -1.225996
H      0.592104    -1.440291     0.144449
H      1.496295     1.239912     0.285592
9
Iteration 0, Energy=-154.0908939526, |grad|=0.027020
C     -0.933232     0.067181     0.047306
C      0.510518    -0.391851    -0.160443
O      1.436716     0.339868     0.595994
H     -1.158590     0.947621    -0.551236
H     -1.633798    -0.717626    -0.242212
H     -1.087198     0.341715     1.094880
H      0.774675    -0.381509    -1.221426
H      0.599723    -1.437524     0.153597
H      1.491186     1.232126     0.283540
9
Iteration 1, Energy=-154.0912333381, |grad|=0.015511
C     -0.926080     0.073231     0.043692
C      0.504732    -0.395801    -0.158627
O      1.435607     0.335098     0.593327
H     -1.159289     0.953370    -0.554476
H     -1.630182    -0.710925    -0.235930
H     -1.088985     0.327343     1.089327
H      0.771489    -0.376780    -1.221184
H      0.608039    -1.429416     0.163406
H      1.484668     1.223881     0.280465
9
Iteration 2, Energy=-154.0913111146, |grad|=0.016609
C     -0.924448     0.073822     0.041918
C      0.506836    -0.395474    -0.160338
O      1.437163     0.330947     0.595295
H     -1.158840     0.959375    -0.557004
H     -1.631017    -0.709660    -0.235817
H     -1.090097     0.321346     1.091473
H      0.769013    -0.375679    -1.222102
H      0.610782    -1.428523     0.169787
H      1.480608     1.223847     0.276789
9
Iteration 3, Energy=-154.0913631954, |grad|=0.007699
C     -0.925039     0.074586     0.041549
C      0.508577    -0.396338    -0.160122
O      1.438637     0.333040     0.595176
H     -1.157998     0.961579    -0.557243
H     -1.632048    -0.709726    -0.237197
H     -1.090348     0.319246     1.093022
H      0.768261    -0.375770    -1.223462
H      0.611109    -1.428654     0.172122
H      1.478849     1.222036     0.276156
9
Iteration 4, Energy=-154.0913906250, |grad|=0.007264
C     -0.925764     0.075410     0.041692
C      0.509873    -0.397021    -0.159112
O      1.439982     0.334168     0.594717
H     -1.156555     0.963415    -0.556566
H     -1.633097    -0.709472    -0.239492
H     -1.090497     0.316915     1.094215
H      0.767779    -0.376344    -1.224978
H      0.611281    -1.428923     0.174544
H      1.476999     1.221852     0.274979
9
Iteration 0, Energy=-153.9728903695, |grad|=1.135419
C     -0.873905    -0.013351     0.033506
C      0.473841    -0.266760    -0.157624
O      1.272977     0.394870     0.644680
H     -1.296627     0.651564    -0.825683
H     -1.657298    -0.956679    -0.018570
H     -1.044444     0.693212     0.920346
H      0.801861    -0.173801    -1.313756
H      0.501642    -1.377992    -0.136052
H      1.760618     0.959446     0.453595
9
Iteration -1, Energy=-154.0913906250, |grad|=0.007264
C     -0.925764     0.075410     0.041692
C      0.509873    -0.397021    -0.159112
O      1.439982     0.334168     0.594717
H     -1.156555     0.963415    -0.556566
H     -1.633097    -0.709472    -0.239492
H     -1.090497     0.316915     1.094215
H      0.767779    -0.376344    -1.224978
H      0.611281    -1.428923     0.174544
H      1.476999     1.221852     0.274979
9
Iteration 0, Energy=-154.0914223721, |grad|=0.016537
C     -0.925512     0.074006     0.043306
C      0.507270    -0.396375    -0.158457
O      1.440202     0.333119     0.592075
H     -1.153180     0.963134    -0.551954
H     -1.632666    -0.706509    -0.244295
H     -1.090637     0.314645     1.093524
H      0.768164    -0.379115    -1.223442
H      0.610880    -1.429494     0.176399
H      1.475479     1.226588     0.272845
9
Iteration 1, Energy=-154.0914682519, |grad|=0.010123
C     -0.925383     0.073590     0.043722
C      0.506650    -0.397213    -0.158079
O      1.440525     0.335323     0.589904
H     -1.151270     0.963383    -0.549392
H     -1.632689    -0.705111    -0.247164
H     -1.090890     0.313242     1.093838
H      0.768125    -0.380740    -1.222661
H      0.610502    -1.429406     0.177405
H      1.474429     1.226931     0.272427
9
Iteration 2, Energy=-154.0915478200, |grad|=0.012005
C     -0.924740     0.072058     0.045060
C      0.505831    -0.399422    -0.156831
O      1.441327     0.340472     0.583282
H     -1.144579     0.965303    -0.540778
H     -1.633159    -0.700525    -0.257405
H     -1.092024     0.307969     1.095642
H      0.767594    -0.386736    -1.220223
H      0.609334    -1.429281     0.181429
H      1.470416     1.230162     0.269824
9
Iteration 3, Energy=-154.0916355192, |grad|=0.016723
C     -0.923616     0.070309     0.046588
C      0.506387    -0.401682    -0.155424
O      1.442517     0.345581     0.576380
H     -1.136330     0.969761    -0.530830
H     -1.634284    -0.695349    -0.270260
H     -1.093903     0.300493     1.098874
H      0.766289    -0.394699    -1.218190
H      0.608294    -1.429363     0.187317
H      1.464648     1.234948     0.265544
9
Iteration 4, Energy=-154.0918804800, |grad|=0.023599
C     -0.920526     0.066664     0.050879
C      0.508543    -0.407814    -0.150843
O      1.447672     0.360003     0.558048
H     -1.110604     0.987488    -0.500843
H     -1.637172    -0.678949    -0.309264
H     -1.100735     0.273690     1.108883
H      0.761173    -0.420669    -1.215171
H      0.607219    -1.430027     0.208118
H      1.444430     1.249615     0.250191
9
Iteration 0, Energy=-154.0032220312, |grad|=0.761512
C     -0.858593     0.122130     0.017464
C      0.418118    -0.256762    -0.100554
O      1.235131     0.297080     0.678204
H     -1.419474     0.775462    -0.793239
H     -1.577005    -0.914316     0.000726
H     -1.155885     0.516133     1.053357
H      0.708909    -0.171601    -1.188072
H      0.511910    -1.345413    -0.142987
H      1.782522     1.010707     0.309458
9
Iteration -1, Energy=-154.0918804800, |grad|=0.023599
C     -0.920526     0.066664     0.050879
C      0.508543    -0.407814    -0.150843
O      1.447672     0.360003     0.558048
H     -1.110604     0.987488    -0.500843
H     -1.637172    -0.678949    -0.309264
H     -1.100735     0.273690     1.108883
H      0.761173    -0.420669    -1.215171
H      0.607219    -1.430027     0.208118
H      1.444430     1.249615     0.250191
9
Iteration 0, Energy=-154.0919655475, |grad|=0.018392
C     -0.920668     0.067471     0.050497
C      0.509466    -0.405858    -0.151157
O      1.447449     0.354767     0.560641
H     -1.110778     0.989854    -0.501539
H     -1.636345    -0.678328    -0.308027
H     -1.101478     0.271399     1.108441
H      0.760368    -0.421364    -1.216509
H      0.608922    -1.430272     0.209891
H      1.443064     1.252332     0.247761
9
Iteration 1, Energy=-154.0920162391, |grad|=0.012822
C     -0.920519     0.068365     0.050103
C      0.509630    -0.406128    -0.151242
O      1.447571     0.355560     0.561088
H     -1.110898     0.991192    -0.501804
H     -1.635899    -0.678034    -0.307374
H     -1.101975     0.269956     1.108252
H      0.759909    -0.421716    -1.217278
H      0.609825    -1.429933     0.210717
H      1.442357     1.250737     0.247537
9
Iteration 2, Energy=-154.0921305251, |grad|=0.006788
C     -0.919334     0.073102     0.047828
C      0.510904    -0.406817    -0.151620
O      1.447490     0.356195     0.563792
H     -1.111442     0.998607    -0.502908
H     -1.633454    -0.676234    -0.304077
H     -1.104811     0.261859     1.107288
H      0.757374    -0.423821    -1.220910
H      0.614910    -1.427953     0.215495
H      1.438363     1.245061     0.245113
9
Iteration 3, Energy=-154.0921535091, |grad|=0.004914
C     -0.918131     0.074295     0.047086
C      0.511057    -0.407189    -0.151788
O      1.446644     0.355414     0.563276
H     -1.111176     1.001420    -0.502027
H     -1.632466    -0.674906    -0.304091
H     -1.106052     0.258399     1.106929
H      0.756616    -0.425086    -1.220615
H      0.616687    -1.426657     0.217602
H      1.436820     1.244310     0.243629
9
Iteration 4, Energy=-154.0921869467, |grad|=0.005945
C     -0.917679     0.075444     0.046422
C      0.510520    -0.406914    -0.151401
O      1.446229     0.355150     0.561198
H     -1.109340     1.006018    -0.498128
H     -1.630605    -0.671454    -0.306701
H     -1.108044     0.251698     1.106258
H      0.755917    -0.428574    -1.220121
H      0.619193    -1.425472     0.222232
H      1.433809     1.244106     0.240242
9
Iteration 0, Energy=-154.0516460191, |grad|=0.389001
C     -1.021384    -0.003457     0.002626
C      0.532927    -0.339616    -0.235805
O      1.257476     0.402928     0.660464
H     -1.415540     0.641891    -0.807653
H     -1.505300    -0.910209    -0.016854
H     -1.033881     0.604125     0.937609
H      0.754766    -0.068370    -1.177490
H      0.586444    -1.373220    -0.139494
H      1.799610     1.093851     0.487704
9
Iteration -1, Energy=-154.0921869467, |grad|=0.005945
C     -0.917679     0.075444     0.046422
C      0.510520    -0.406914    -0.151401
O      1.446229     0.355150     0.561198
H     -1.109340     1.006018    -0.498128
H     -1.630605    -0.671454    -0.306701
H     -1.108044     0.251698     1.106258
H      0.755917    -0.428574    -1.220121
H      0.619193    -1.425472     0.222232
H      1.433809     1.244106     0.240242
9
Iteration 0, Energy=-154.0922042526, |grad|=0.008397
C     -0.917227     0.075589     0.047145
C      0.510715    -0.408954    -0.151079
O      1.447089     0.357086     0.560208
H     -1.108316     1.005871    -0.496100
H     -1.631910    -0.671735    -0.309939
H     -1.108223     0.251453     1.107308
H      0.756138    -0.429584    -1.219645
H      0.617968    -1.424999     0.222409
H      1.433767     1.245274     0.239692
9
Iteration 1, Energy=-154.0922236261, |grad|=0.006312
C     -0.917371     0.074554     0.047635
C      0.510987    -0.408882    -0.150871
O      1.447635     0.357661     0.559337
H     -1.107262     1.006084    -0.494296
H     -1.632527    -0.671258    -0.312635
H     -1.108401     0.251059     1.108187
H      0.756312    -0.430721    -1.219209
H      0.617057    -1.425415     0.223057
H      1.433570     1.246919     0.238795
9
Iteration 2, Energy=-154.0922594988, |grad|=0.007183
C     -0.918537     0.070910     0.049219
C      0.511544    -0.408146    -0.149548
O      1.449357     0.361762     0.554956
H     -1.102910     1.007146    -0.486927
H     -1.633760    -0.668245    -0.322453
H     -1.109287     0.248258     1.110710
H      0.756871    -0.435474    -1.217877
H      0.614250    -1.427039     0.226184
H      1.432472     1.250828     0.235736
9
Iteration 3, Energy=-154.0922843093, |grad|=0.009941
C     -0.918420     0.070867     0.050107
C      0.511334    -0.408869    -0.148564
O      1.449781     0.362241     0.552617
H     -1.099780     1.008457    -0.481447
H     -1.633775    -0.665557    -0.328472
H     -1.110550     0.244063     1.111288
H      0.756734    -0.439126    -1.216965
H      0.613734    -1.426605     0.229126
H      1.430943     1.254528     0.232311
9
Iteration 4, Energy=-154.0923184009, |grad|=0.010952
C     -0.918005     0.070831     0.050565
C      0.510838    -0.409409    -0.147964
O      1.449927     0.363773     0.550176
H     -1.096866     1.010653    -0.476502
H     -1.633119    -0.662413    -0.333476
H     -1.112135     0.239083     1.111605
H      0.756248    -0.442765    -1.216093
H      0.613967    -1.425986     0.232469
H      1.429144     1.256233     0.229220
9
Iteration 0, Energy=-154.0306663298, |grad|=0.435388
C     -1.026538    -0.019406     0.023372
C      0.403046    -0.238717    -0.173884
O      1.360514     0.293529     0.807033
H     -1.265518     0.725991    -0.655433
H     -1.650592    -0.921221    -0.031354
H     -1.138553     0.570413     0.995975
H      0.734716    -0.046688    -1.308991
H      0.574076    -1.524817    -0.007801
H      1.814333     1.133878     0.417996
9
Iteration -1, Energy=-154.0923184009, |grad|=0.010952
C     -0.918005     0.070831     0.050565
C      0.510838    -0.409409    -0.147964
O      1.449927     0.363773     0.550176
H     -1.096866     1.010653    -0.476502
H     -1.633119    -0.662413    -0.333476
H     -1.112135     0.239083     1.111605
H      0.756248    -0.442765    -1.216093
H      0.613967    -1.425986     0.232469
H      1.429144     1.256233     0.229220
9
Iteration 0, Energy=-154.0923372589, |grad|=0.006219
C     -0.917660     0.070938     0.050276
C      0.510809    -0.409729    -0.148141
O      1.449828     0.365253     0.549865
H     -1.096863     1.011557    -0.476620
H     -1.632838    -0.662132    -0.333224
H     -1.112494     0.238271     1.111666
H      0.755936    -0.442962    -1.216136
H      0.614416    -1.425686     0.232887
H      1.428866     1.254490     0.229427
9
Iteration 1, Energy=-154.0923491175, |grad|=0.006308
C     -0.917286     0.071278     0.049958
C      0.510952    -0.409788    -0.148250
O      1.449563     0.365372     0.549916
H     -1.096796     1.012674    -0.476678
H     -1.632484    -0.661766    -0.332944
H     -1.112963     0.237099     1.111643
H      0.755524    -0.443282    -1.216245
H      0.615097    -1.425321     0.233546
H      1.428393     1.253733     0.229055
9
Iteration 2, Energy=-154.0923857534, |grad|=0.005558
C     -0.915977     0.073976     0.048798
C      0.511431    -0.410219    -0.148300
O      1.448503     0.364894     0.550442
H     -1.096020     1.017717    -0.476142
H     -1.630753    -0.659848    -0.332192
H     -1.115236     0.230772     1.110985
H      0.753620    -0.445168    -1.217088
H      0.618575    -1.423493     0.237086
H      1.425855     1.251369     0.226412
9
Iteration 3, Energy=-154.0923990635, |grad|=0.009836
C     -0.916027     0.073226     0.048356
C      0.510783    -0.409053    -0.148294
O      1.448807     0.365224     0.549718
H     -1.094022     1.021425    -0.473345
H     -1.629398    -0.656912    -0.334543
H     -1.117012     0.225860     1.111013
H      0.752671    -0.447744    -1.216864
H      0.620334    -1.423433     0.240709
H      1.423864     1.251407     0.223251
9
Iteration 4, Energy=-154.0924201831, |grad|=0.006969
C     -0.915822     0.074282     0.048427
C      0.510886    -0.409771    -0.147656
O      1.448765     0.365516     0.548953
H     -1.092630     1.023135    -0.471059
H     -1.629125    -0.655613    -0.336683
H     -1.118123     0.222667     1.110925
H      0.752134    -0.449370    -1.216775
H      0.621204    -1.422674     0.242683
H      1.422711     1.251827     0.221186
9
Iteration 0, Energy=-154.0266760065, |grad|=0.459620
C     -0.986456     0.145440     0.058193
C      0.450098    -0.225666    -0.102215
O      1.277402     0.403326     0.710279
H     -1.419273     0.805305    -0.728253
H     -1.612308    -0.961533     0.009572
H     -0.990475     0.670613     1.013227
H      0.848585    -0.217025    -1.311237
H      0.528247    -1.381117    -0.133476
H      1.925031     1.087568     0.381966
9
Iteration -1, Energy=-154.0924201831, |grad|=0.006969
C     -0.915822     0.074282     0.048427
C      0.510886    -0.409771    -0.147656
O      1.448765     0.365516     0.548953
H     -1.092630     1.023135    -0.471059
H     -1.629125    -0.655613    -0.336683
H     -1.118123     0.222667     1.110925
H      0.752134    -0.449370    -1.216775
H      0.621204    -1.422674     0.242683
H      1.422711     1.251827     0.221186
9
Iteration 0, Energy=-154.0924278803, |grad|=0.007842
C     -0.915468     0.075809     0.049126
C      0.511606    -0.411719    -0.146847
O      1.448593     0.366398     0.547980
H     -1.092088     1.022255    -0.469668
H     -1.630131    -0.656135    -0.338572
H     -1.118216     0.222508     1.111081
H      0.752293    -0.449701    -1.216493
H      0.620502    -1.421895     0.242437
H      1.422909     1.252479     0.220955
9
Iteration 1, Energy=-154.0924363623, |grad|=0.004134
C     -0.915570     0.074937     0.049096
C      0.511463    -0.411056    -0.147051
O      1.448735     0.366304     0.547928
H     -1.091921     1.022481    -0.469468
H     -1.630014    -0.655773    -0.338873
H     -1.118285     0.222491     1.111286
H      0.752314    -0.449909    -1.216327
H      0.620410    -1.422284     0.242685
H      1.422870     1.252810     0.220724
9
Iteration 2, Energy=-154.0924464568, |grad|=0.003329
C     -0.915710     0.073672     0.049338
C      0.511385    -0.410602    -0.147042
O      1.449051     0.366864     0.547238
H     -1.091198     1.022603    -0.468201
H     -1.630167    -0.655081    -0.340578
H     -1.118525     0.222249     1.111829
H      0.752446    -0.450627    -1.215861
H      0.619864    -1.422762     0.243191
H      1.422853     1.253685     0.220086
9
Iteration 3, Energy=-154.0924599759, |grad|=0.005008
C     -0.915950     0.072051     0.050015
C      0.511361    -0.410534    -0.146617
O      1.449637     0.368276     0.545637
H     -1.089511     1.022675    -0.465132
H     -1.630648    -0.653759    -0.344511
H     -1.119115     0.221312     1.112786
H      0.752704    -0.452268    -1.215025
H      0.618765    -1.423280     0.244263
H      1.422758     1.255527     0.218584
9
Iteration 4, Energy=-154.0924789035, |grad|=0.005971
C     -0.916179     0.070832     0.050872
C      0.511195    -0.410894    -0.145865
O      1.450314     0.370756     0.543320
H     -1.086760     1.023678    -0.460282
H     -1.630868    -0.651337    -0.350172
H     -1.120494     0.218250     1.113777
H      0.752705    -0.455192    -1.214082
H      0.617993    -1.423460     0.246608
H      1.422093     1.257368     0.215823
9
Iteration 0, Energy=-154.0063289158, |grad|=0.819170
C     -0.916094     0.073263     0.033846
C      0.507400    -0.239524    -0.129402
O      1.281255     0.243619     0.661935
H     -1.289453     0.751116    -0.682601
H     -1.574721    -0.931308     0.046763
H     -1.000941     0.510538     0.925907
H      0.873806    -0.144196    -1.305246
H      0.667745    -1.438680     0.027183
H      1.857234     1.008402     0.428972
9
Iteration -1, Energy=-154.0924789035, |grad|=0.005971
C     -0.916179     0.070832     0.050872
C      0.511195    -0.410894    -0.145865
O      1.450314     0.370756     0.543320
H     -1.086760     1.023678    -0.460282
H     -1.630868    -0.651337    -0.350172
H     -1.120494     0.218250     1.113777
H      0.752705    -0.455192    -1.214082
H      0.617993    -1.423460     0.246608
H      1.422093     1.257368     0.215823
9
Iteration 0, Energy=-154.0924869518, |grad|=0.004272
C     -0.915901     0.072411     0.050902
C      0.511530    -0.411997    -0.145344
O      1.449967     0.370564     0.543288
H     -1.086607     1.023922    -0.459916
H     -1.630922    -0.651437    -0.350332
H     -1.120788     0.217231     1.113495
H      0.752488    -0.455420    -1.214307
H      0.618406    -1.422604     0.246838
H      1.421827     1.257331     0.215374
9
Iteration 1, Energy=-154.0924921177, |grad|=0.003810
C     -0.915746     0.072672     0.050804
C      0.511542    -0.411968    -0.145382
O      1.449835     0.370546     0.543299
H     -1.086448     1.024573    -0.459733
H     -1.630698    -0.651136    -0.350364
H     -1.121100     0.216364     1.113406
H      0.752261    -0.455729    -1.214328
H      0.618817    -1.422407     0.247331
H      1.421536     1.257083     0.214967
9
Iteration 2, Energy=-154.0925204270, |grad|=0.007140
C     -0.915382     0.074145     0.049169
C      0.511238    -0.412427    -0.143990
O      1.449393     0.371638     0.542420
H     -1.083585     1.031332    -0.455399
H     -1.628172    -0.646627    -0.353157
H     -1.124658     0.206554     1.113269
H      0.750262    -0.459956    -1.214960
H      0.622470    -1.420236     0.253103
H      1.418434     1.255579     0.209546
9
Iteration 3, Energy=-154.0925305751, |grad|=0.009604
C     -0.913803     0.076103     0.050827
C      0.511600    -0.411803    -0.145376
O      1.448925     0.372439     0.541290
H     -1.080783     1.036276    -0.450899
H     -1.627773    -0.643953    -0.357826
H     -1.127606     0.198701     1.112452
H      0.748594    -0.463807    -1.213459
H      0.624765    -1.419557     0.258389
H      1.416081     1.255602     0.204602
9
Iteration 4, Energy=-154.0925487651, |grad|=0.005384
C     -0.914184     0.075278     0.050420
C      0.511569    -0.412275    -0.144465
O      1.449182     0.373231     0.540578
H     -1.080431     1.035843    -0.450009
H     -1.627874    -0.643558    -0.358844
H     -1.127604     0.199012     1.113077
H      0.748878    -0.464003    -1.213510
H      0.624144    -1.419508     0.258227
H      1.416319     1.255981     0.204526
9
Iteration 0, Energy=-154.0534028704, |grad|=0.349132
C     -0.927433     0.020955     0.048711
C      0.536581    -0.310966    -0.173281
O      1.274935     0.309066     0.712842
H     -1.318709     0.766781    -0.676874
H     -1.655768    -0.857767    -0.063087
H     -0.989004     0.684228     0.955752
H      0.861726    -0.044692    -1.303015
H      0.533609    -1.468341     0.025696
H      1.798280     1.016494     0.334386
9
Iteration -1, Energy=-154.0925487651, |grad|=0.005384
C     -0.914184     0.075278     0.050420
C      0.511569    -0.412275    -0.144465
O      1.449182     0.373231     0.540578
H     -1.080431     1.035843    -0.450009
H     -1.627874    -0.643558    -0.358844
H     -1.127604     0.199012     1.113077
H      0.748878    -0.464003    -1.213510
H      0.624144    -1.419508     0.258227
H      1.416319     1.255981     0.204526
9
Iteration 0, Energy=-154.0925591397, |grad|=0.004754
C     -0.914566     0.074603     0.050039
C      0.511692    -0.413093    -0.143285
O      1.449348     0.373743     0.539787
H     -1.080022     1.035143    -0.448891
H     -1.628071    -0.643173    -0.360116
H     -1.127609     0.199393     1.113768
H      0.749229    -0.464216    -1.213536
H      0.623360    -1.419260     0.257928
H      1.416638     1.256861     0.204306
9
Iteration 1, Energy=-154.0925696015, |grad|=0.004003
C     -0.914800     0.073592     0.050516
C      0.511702    -0.413202    -0.143017
O      1.449701     0.374461     0.538926
H     -1.079399     1.034415    -0.447440
H     -1.628536    -0.642781    -0.362100
H     -1.127650     0.199779     1.114263
H      0.749603    -0.464656    -1.212990
H      0.622388    -1.419615     0.257961
H      1.416989     1.258007     0.203882
9
Iteration 2, Energy=-154.0925808088, |grad|=0.006934
C     -0.914777     0.072770     0.051937
C      0.511508    -0.413308    -0.142715
O      1.450404     0.377380     0.536756
H     -1.077351     1.033796    -0.443190
H     -1.629525    -0.641515    -0.367480
H     -1.128591     0.198459     1.115177
H      0.750063    -0.466650    -1.211847
H      0.620967    -1.420385     0.259323
H      1.417301     1.259452     0.202039
9
Iteration 3, Energy=-154.0925889839, |grad|=0.004373
C     -0.915098     0.071362     0.052673
C      0.511664    -0.412975    -0.142550
O      1.450696     0.377436     0.535904
H     -1.076032     1.034188    -0.440638
H     -1.629668    -0.640171    -0.370631
H     -1.129341     0.197248     1.115764
H      0.750200    -0.468061    -1.211049
H      0.620298    -1.420701     0.260457
H      1.417282     1.261674     0.200069
9
Iteration 4, Energy=-154.0925955719, |grad|=0.003642
C     -0.915063     0.071430     0.052676
C      0.511678    -0.413084    -0.142474
O      1.450628     0.377838     0.535698
H     -1.075596     1.035033    -0.439920
H     -1.629400    -0.639553    -0.371271
H     -1.129879     0.195968     1.115802
H      0.749984    -0.468701    -1.210992
H      0.620627    -1.420447     0.261185
H      1.417020     1.261516     0.199298
9
Iteration 0, Energy=-154.0381451025, |grad|=0.462325
C     -0.879050     0.140720    -0.002755
C      0.479555    -0.395934    -0.230741
O      1.266382     0.373231     0.772515
H     -1.323273     0.791643    -0.659172
H     -1.607308    -0.894225    -0.024613
H     -1.120717     0.500480     1.079218
H      0.725616    -0.057076    -1.248066
H      0.591452    -1.395584     0.005559
H      1.763139     1.142604     0.360833
9
Iteration -1, Energy=-154.0925955719, |grad|=0.003642
C     -0.915063     0.071430     0.052676
C      0.511678    -0.413084    -0.142474
O      1.450628     0.377838     0.535698
H     -1.075596     1.035033    -0.439920
H     -1.629400    -0.639553    -0.371271
H     -1.129879     0.195968     1.115802
H      0.749984    -0.468701    -1.210992
H      0.620627    -1.420447     0.261185
H      1.417020     1.261516     0.199298
9
Iteration 0, Energy=-154.0925994628, |grad|=0.003397
C     -0.915014     0.071740     0.052192
C      0.511702    -0.413647    -0.142001
O      1.450453     0.378206     0.535537
H     -1.075522     1.035591    -0.439752
H     -1.629093    -0.639240    -0.371127
H     -1.130164     0.195187     1.115822
H      0.749797    -0.468877    -1.211182
H      0.620993    -1.419870     0.261414
H      1.416849     1.260911     0.199096
9
Iteration 1, Energy=-154.0926034308, |grad|=0.003212
C     -0.914874     0.072072     0.051948
C      0.511726    -0.413749    -0.141880
O      1.450254     0.378055     0.535581
H     -1.075387     1.036357    -0.439543
H     -1.628791    -0.638889    -0.371061
H     -1.130529     0.194157     1.115681
H      0.749528    -0.469170    -1.211217
H      0.621506    -1.419481     0.261918
H      1.416567     1.260648     0.198574
9
Iteration 2, Energy=-154.0926090230, |grad|=0.007143
C     -0.914004     0.073971     0.051783
C      0.511473    -0.413377    -0.142305
O      1.449663     0.378889     0.535483
H     -1.074240     1.040447    -0.437717
H     -1.627585    -0.637033    -0.371873
H     -1.132622     0.188236     1.114578
H      0.748099    -0.471173    -1.210975
H      0.624159    -1.418374     0.265357
H      1.415057     1.258415     0.195670
9
Iteration 3, Energy=-154.0926169986, |grad|=0.003278
C     -0.914213     0.073941     0.051452
C      0.511693    -0.413585    -0.141560
O      1.449623     0.378032     0.535483
H     -1.073811     1.040881    -0.436800
H     -1.627440    -0.636463    -0.372692
H     -1.133024     0.187316     1.114832
H      0.748024    -0.471661    -1.211119
H      0.624273    -1.418020     0.265889
H      1.414877     1.259561     0.194513
9
Iteration 4, Energy=-154.0926201161, |grad|=0.003062
C     -0.914345     0.073615     0.051633
C      0.511723    -0.413607    -0.141484
O      1.449790     0.378272     0.535269
H     -1.073605     1.040697    -0.436326
H     -1.627603    -0.636341    -0.373384
H     -1.133058     0.187403     1.115024
H      0.748143    -0.471810    -1.211004
H      0.623966    -1.418174     0.265961
H      1.414988     1.259947     0.194312
9
Iteration 0, Energy=-153.9921973155, |grad|=0.979002
C     -0.978682    -0.045868     0.075761
C      0.573828    -0.278839    -0.220622
O      1.316298     0.330709     0.675655
H     -1.360234     0.705372    -0.655032
H     -1.556888    -0.777966     0.030468
H     -1.076168     0.579887     1.100258
H      0.763300    -0.190235    -1.176402
H      0.624917    -1.473649    -0.140771
H      1.735826     0.967433     0.415668
9
Iteration -1, Energy=-154.0926201161, |grad|=0.003062
C     -0.914345     0.073615     0.051633
C      0.511723    -0.413607    -0.141484
O      1.449790     0.378272     0.535269
H     -1.073605     1.040697    -0.436326
H     -1.627603    -0.636341    -0.373384
H     -1.133058     0.187403     1.115024
H      0.748143    -0.471810    -1.211004
H      0.623966    -1.418174     0.265961
H      1.414988     1.259947     0.194312
9
Iteration 0, Energy=-154.0926225574, |grad|=0.003254
C     -0.914324     0.073286     0.051895
C      0.511674    -0.413724    -0.141606
O      1.449927     0.379185     0.534832
H     -1.073401     1.040615    -0.435850
H     -1.627757    -0.636196    -0.374091
H     -1.133150     0.187394     1.115172
H      0.748220    -0.471984    -1.210734
H      0.623686    -1.418295     0.266071
H      1.415124     1.259718     0.194311
9
Iteration 1, Energy=-154.0926250206, |grad|=0.002874
C     -0.914351     0.073006     0.052057
C      0.511701    -0.413738    -0.141557
O      1.450003     0.379389     0.534571
H     -1.073179     1.040511    -0.435336
H     -1.627883    -0.636022    -0.374783
H     -1.133250     0.187343     1.115343
H      0.748300    -0.472177    -1.210544
H      0.623444    -1.418382     0.266199
H      1.415216     1.260069     0.194049
9
Iteration 2, Energy=-154.0926332746, |grad|=0.005309
C     -0.915061     0.071557     0.052666
C      0.511736    -0.414511    -0.139728
O      1.450599     0.381505     0.532207
H     -1.070933     1.039897    -0.430210
H     -1.628420    -0.633923    -0.380745
H     -1.134497     0.185588     1.116718
H      0.748919    -0.474294    -1.209766
H      0.621881    -1.418465     0.267664
H      1.415777     1.262646     0.191194
9
Iteration 3, Energy=-154.0926391078, |grad|=0.004316
C     -0.914943     0.070651     0.053749
C      0.511674    -0.413831    -0.140506
O      1.450826     0.382087     0.531614
H     -1.069855     1.040743    -0.428084
H     -1.628530    -0.632802    -0.383407
H     -1.135406     0.183939     1.116843
H      0.748809    -0.475578    -1.208688
H      0.621698    -1.418881     0.269131
H      1.415727     1.263671     0.189348
9
Iteration 4, Energy=-154.0926434910, |grad|=0.003318
C     -0.914841     0.070975     0.053555
C      0.511689    -0.413967    -0.140355
O      1.450689     0.382144     0.531625
H     -1.069743     1.041264    -0.427891
H     -1.628330    -0.632568    -0.383401
H     -1.135701     0.183166     1.116782
H      0.748627    -0.475822    -1.208764
H      0.622048    -1.418584     0.269466
H      1.415561     1.263392     0.188983
9
Iteration 0, Energy=-154.0445534929, |grad|=0.466181
C     -0.989549     0.012477     0.103309
C      0.437927    -0.366904    -0.134035
O      1.314405     0.404893     0.787154
H     -1.300200     0.645845    -0.770409
H     -1.636704    -0.831820     0.113375
H     -1.039849     0.679573     1.100875
H      0.880774    -0.094526    -1.263808
H      0.587956    -1.337157    -0.079633
H      1.837153     1.019647     0.373746
9
Iteration -1, Energy=-154.0926434910, |grad|=0.003318
C     -0.914841     0.070975     0.053555
C      0.511689    -0.413967    -0.140355
O      1.450689     0.382144     0.531625
H     -1.069743     1.041264    -0.427891
H     -1.628330    -0.632568    -0.383401
H     -1.135701     0.183166     1.116782
H      0.748627    -0.475822    -1.208764
H      0.622048    -1.418584     0.269466
H      1.415561     1.263392     0.188983
9
Iteration 0, Energy=-154.0926464144, |grad|=0.003754
C     -0.914708     0.071538     0.053029
C      0.511765    -0.414514    -0.139786
O      1.450455     0.382577     0.531466
H     -1.069697     1.041795    -0.427753
H     -1.628097    -0.632379    -0.383214
H     -1.136008     0.182342     1.116813
H      0.748429    -0.475992    -1.209049
H      0.622451    -1.418013     0.269673
H      1.415409     1.262646     0.188821
9
Iteration 1, Energy=-154.0926490881, |grad|=0.002655
C     -0.914615     0.071741     0.052954
C      0.511802    -0.414426    -0.139814
O      1.450336     0.382339     0.531593
H     -1.069639     1.042265    -0.427688
H     -1.627944    -0.632225    -0.383140
H     -1.136220     0.181751     1.116698
H      0.748262    -0.476158    -1.209058
H      0.622768    -1.417866     0.269983
H      1.415251     1.262578     0.188472
9
Iteration 2, Energy=-154.0926546739, |grad|=0.001779
C     -0.914227     0.072654     0.052782
C      0.511796    -0.414104    -0.140111
O      1.449939     0.382079     0.531985
H     -1.069271     1.044511    -0.427180
H     -1.627225    -0.631405    -0.383041
H     -1.137271     0.178835     1.116081
H      0.747485    -0.477033    -1.209011
H      0.624227    -1.417243     0.271568
H      1.414546     1.261706     0.186927
9
Iteration 3, Energy=-154.0926568317, |grad|=0.002427
C     -0.914278     0.072909     0.052627
C      0.511769    -0.414256    -0.139703
O      1.449916     0.382095     0.531872
H     -1.068879     1.045089    -0.426308
H     -1.627033    -0.630869    -0.383728
H     -1.137757     0.177631     1.116059
H      0.747329    -0.477533    -1.209043
H      0.624540    -1.416934     0.272248
H      1.414395     1.261869     0.185975
9
Iteration 4, Energy=-154.0926627181, |grad|=0.004056
C     -0.914402     0.073172     0.052582
C      0.511667    -0.414492    -0.138955
O      1.449972     0.382754     0.531269
H     -1.067694     1.046591    -0.423666
H     -1.626663    -0.629338    -0.386124
H     -1.139102     0.174483     1.116053
H      0.746969    -0.478980    -1.208793
H      0.625139    -1.416366     0.274206
H      1.414115     1.262177     0.183426
9
Iteration 0, Energy=-154.0201471149, |grad|=0.599886
C     -0.999070     0.138258     0.141932
C      0.564226    -0.280013    -0.103977
O      1.273132     0.333131     0.792025
H     -1.299767     0.723110    -0.647066
H     -1.570994    -0.937225    -0.042101
H     -1.106099     0.571093     1.054517
H      0.714569    -0.062395    -1.262123
H      0.626789    -1.509394    -0.082967
H      1.857659     1.096415     0.367320
9
Iteration -1, Energy=-154.0926627181, |grad|=0.004056
C     -0.914402     0.073172     0.052582
C      0.511667    -0.414492    -0.138955
O      1.449972     0.382754     0.531269
H     -1.067694     1.046591    -0.423666
H     -1.626663    -0.629338    -0.386124
H     -1.139102     0.174483     1.116053
H      0.746969    -0.478980    -1.208793
H      0.625139    -1.416366     0.274206
H      1.414115     1.262177     0.183426
9
Iteration 0, Energy=-154.0926652053, |grad|=0.002144
C     -0.914285     0.072865     0.052864
C      0.511686    -0.414424    -0.139293
O      1.449995     0.383502     0.530948
H     -1.067626     1.046649    -0.423510
H     -1.626775    -0.629290    -0.386484
H     -1.139167     0.174510     1.116110
H      0.746974    -0.479053    -1.208487
H      0.624982    -1.416516     0.274295
H      1.414216     1.261757     0.183557
9
Iteration 1, Energy=-154.0926661868, |grad|=0.001832
C     -0.914252     0.072698     0.052956
C      0.511747    -0.414391    -0.139316
O      1.449983     0.383541     0.530825
H     -1.067547     1.046616    -0.423304
H     -1.626848    -0.629224    -0.386795
H     -1.139225     0.174509     1.116207
H      0.747002    -0.479127    -1.208352
H      0.624861    -1.416558     0.274346
H      1.414277     1.261935     0.183434
9
Iteration 2, Energy=-154.0926708182, |grad|=0.001723
C     -0.914250     0.071611     0.053454
C      0.512007    -0.414595    -0.138903
O      1.450062     0.384363     0.529691
H     -1.066750     1.046133    -0.421234
H     -1.627329    -0.628498    -0.389544
H     -1.139749     0.174279     1.117042
H      0.747336    -0.479846    -1.207591
H      0.623858    -1.416690     0.274750
H      1.414815     1.263244     0.182334
9
Iteration 3, Energy=-154.0926730615, |grad|=0.002979
C     -0.914768     0.071172     0.054040
C      0.511597    -0.414309    -0.138811
O      1.450519     0.385090     0.529334
H     -1.065918     1.046179    -0.419429
H     -1.627223    -0.627548    -0.391482
H     -1.140311     0.173170     1.117050
H      0.747488    -0.480743    -1.207317
H      0.623639    -1.416998     0.275655
H      1.414977     1.263986     0.180960
9
Iteration 4, Energy=-154.0926760714, |grad|=0.002423
C     -0.914888     0.071084     0.054153
C      0.511556    -0.414502    -0.138382
O      1.450574     0.385762     0.528847
H     -1.065296     1.046510    -0.417977
H     -1.627159    -0.626820    -0.392972
H     -1.140938     0.171986     1.117255
H      0.747483    -0.481474    -1.207125
H      0.623584    -1.416825     0.276365
H      1.415083     1.264280     0.179837
9
Iteration 0, Energy=-154.0041562233, |grad|=0.775976
C     -1.019870    -0.042852    -0.051909
C      0.539635    -0.284741    -0.237554
O      1.245424     0.337875     0.642382
H     -1.445087     0.817142    -0.684491
H     -1.527723    -0.806812     0.108522
H     -0.993088     0.545885     1.037308
H      0.738747    -0.059808    -1.318679
H      0.618485    -1.505907     0.011688
H      1.875441     1.098563     0.308952
9
Iteration -1, Energy=-154.0926760714, |grad|=0.002423
C     -0.914888     0.071084     0.054153
C      0.511556    -0.414502    -0.138382
O      1.450574     0.385762     0.528847
H     -1.065296     1.046510    -0.417977
H     -1.627159    -0.626820    -0.392972
H     -1.140938     0.171986     1.117255
H      0.747483    -0.481474    -1.207125
H      0.623584    -1.416825     0.276365
H      1.415083     1.264280     0.179837
9
Iteration 0, Energy=-154.0926771119, |grad|=0.004430
C     -0.914260     0.071601     0.053508
C      0.512035    -0.415198    -0.137876
O      1.449967     0.386059     0.528511
H     -1.065325     1.047491    -0.417884
H     -1.627073    -0.626726    -0.392860
H     -1.141454     0.170950     1.117506
H      0.747114    -0.481644    -1.207097
H      0.624041    -1.415980     0.276624
H      1.414954     1.263447     0.179568
9
Iteration 1, Energy=-154.0926795357, |grad|=0.001760
C     -0.914343     0.071543     0.053689
C      0.511946    -0.414849    -0.138131
O      1.450039     0.385728     0.528722
H     -1.065275     1.047614    -0.417854
H     -1.627002    -0.626642    -0.392871
H     -1.141481     0.170791     1.117334
H      0.747081    -0.481723    -1.207036
H      0.624147    -1.416150     0.276818
H      1.414887     1.263688     0.179330
9
Iteration 2, Energy=-154.0926807886, |grad|=0.001344
C     -0.914335     0.071673     0.053730
C      0.511890    -0.414669    -0.138262
O      1.450015     0.385626     0.528855
H     -1.065185     1.048041    -0.417714
H     -1.626851    -0.626461    -0.392890
H     -1.141680     0.170212     1.117148
H      0.746942    -0.481903    -1.207001
H      0.624433    -1.416112     0.277175
H      1.414769     1.263594     0.178958
9
Iteration 3, Energy=-154.0926824016, |grad|=0.001697
C     -0.914332     0.072048     0.053667
C      0.511783    -0.414555    -0.138251
O      1.449952     0.385639     0.528995
H     -1.064957     1.048890    -0.417263
H     -1.626535    -0.626037    -0.393043
H     -1.142145     0.168912     1.116848
H      0.746670    -0.482310    -1.207014
H      0.625006    -1.415879     0.277899
H      1.414558     1.263291     0.178163
9
Iteration 4, Energy=-154.0926845875, |grad|=0.001891
C     -0.914386     0.072336     0.053641
C      0.511668    -0.414553    -0.138035
O      1.449935     0.385978     0.528890
H     -1.064498     1.049808    -0.416200
H     -1.626236    -0.625335    -0.393850
H     -1.142837     0.167213     1.116650
H      0.746416    -0.482953    -1.206936
H      0.625507    -1.415576     0.278897
H      1.414431     1.263084     0.176941
9
Iteration 0, Energy=-154.0584241524, |grad|=0.454457
C     -0.965040     0.105474     0.059883
C      0.564961    -0.330706    -0.157729
O      1.292486     0.378128     0.827483
H     -1.331692     0.760380    -0.662710
H     -1.545509    -0.846237     0.120218
H     -0.989393     0.530890     0.957988
H      0.867746    -0.155064    -1.166030
H      0.683257    -1.389400    -0.069938
H      1.774876     0.961984     0.409683
9
Iteration -1, Energy=-154.0926845875, |grad|=0.001891
C     -0.914386     0.072336     0.053641
C      0.511668    -0.414553    -0.138035
O      1.449935     0.385978     0.528890
H     -1.064498     1.049808    -0.416200
H     -1.626236    -0.625335    -0.393850
H     -1.142837     0.167213     1.116650
H      0.746416    -0.482953    -1.206936
H      0.625507    -1.415576     0.278897
H      1.414431     1.263084     0.176941
9
Iteration 0, Energy=-154.0926851195, |grad|=0.003023
C     -0.914305     0.072264     0.053472
C      0.511813    -0.415064    -0.137560
O      1.449866     0.386565     0.528411
H     -1.064368     1.049648    -0.415713
H     -1.626381    -0.625225    -0.394446
H     -1.142980     0.167169     1.117007
H      0.746495    -0.483042    -1.206886
H      0.625245    -1.415329     0.278843
H      1.414615     1.263014     0.176873
9
Iteration 1, Energy=-154.0926861512, |grad|=0.001479
C     -0.914326     0.072156     0.053587
C      0.511807    -0.414886    -0.137686
O      1.449889     0.386389     0.528469
H     -1.064327     1.049671    -0.415642
H     -1.626387    -0.625177    -0.394561
H     -1.143002     0.167138     1.116980
H      0.746498    -0.483089    -1.206806
H      0.625232    -1.415428     0.278930
H      1.414615     1.263226     0.176729
9
Iteration 2, Energy=-154.0926872150, |grad|=0.001135
C     -0.914358     0.071898     0.053774
C      0.511825    -0.414767    -0.137731
O      1.449936     0.386436     0.528333
H     -1.064155     1.049646    -0.415212
H     -1.626455    -0.624993    -0.395129
H     -1.143132     0.167008     1.117072
H      0.746546    -0.483256    -1.206613
H      0.625083    -1.415528     0.279115
H      1.414711     1.263556     0.176390
9
Iteration 3, Energy=-154.0926886965, |grad|=0.001800
C     -0.914454     0.071434     0.054088
C      0.511832    -0.414705    -0.137646
O      1.450049     0.386829     0.527924
H     -1.063745     1.049578    -0.414153
H     -1.626583    -0.624543    -0.396442
H     -1.143460     0.166619     1.117311
H      0.746658    -0.483656    -1.206263
H      0.624758    -1.415641     0.279521
H      1.414946     1.264086     0.175659
9
Iteration 4, Energy=-154.0926907147, |grad|=0.002132
C     -0.914661     0.071038     0.054407
C      0.511749    -0.414736    -0.137332
O      1.450205     0.387530     0.527375
H     -1.063083     1.049691    -0.412480
H     -1.626609    -0.623752    -0.398298
H     -1.144079     0.165605     1.117557
H      0.746754    -0.484366    -1.205903
H      0.624500    -1.415644     0.280271
H      1.415226     1.264635     0.174402
9
Iteration 0, Energy=-154.0256288014, |grad|=0.604876
C     -1.035320    -0.009278     0.049209
C      0.511006    -0.408697    -0.259217
O      1.273800     0.421426     0.761630
H     -1.396788     0.815490    -0.760529
H     -1.517463    -0.891758    -0.000407
H     -1.133845     0.557202     1.022130
H      0.781387    -0.058176    -1.137856
H      0.666907    -1.348659    -0.081190
H      1.889711     1.044816     0.487395
9
Iteration -1, Energy=-154.0926907147, |grad|=0.002132
C     -0.914661     0.071038     0.054407
C      0.511749    -0.414736    -0.137332
O      1.450205     0.387530     0.527375
H     -1.063083     1.049691    -0.412480
H     -1.626609    -0.623752    -0.398298
H     -1.144079     0.165605     1.117557
H      0.746754    -0.484366    -1.205903
H      0.624500    -1.415644     0.280271
H      1.415226     1.264635     0.174402
9
Iteration 0, Energy=-154.0926915167, |grad|=0.001546
C     -0.914625     0.071226     0.054264
C      0.511740    -0.414965    -0.137158
O      1.450154     0.387863     0.527275
H     -1.063063     1.049841    -0.412406
H     -1.626544    -0.623697    -0.398275
H     -1.144183     0.165341     1.117562
H      0.746701    -0.484424    -1.205979
H      0.624607    -1.415462     0.280322
H      1.415213     1.264277     0.174394
9
Iteration 1, Energy=-154.0926920337, |grad|=0.001374
C     -0.914597     0.071322     0.054213
C      0.511751    -0.414975    -0.137119
O      1.450105     0.387825     0.527304
H     -1.063036     1.050013    -0.412348
H     -1.626485    -0.623635    -0.398268
H     -1.144279     0.165097     1.117530
H      0.746644    -0.484494    -1.205992
H      0.624720    -1.415381     0.280429
H      1.415178     1.264228     0.174250
9
Iteration 2, Energy=-154.0926945013, |grad|=0.002073
C     -0.914311     0.072136     0.054064
C      0.511706    -0.414713    -0.137220
O      1.449693     0.387954     0.527564
H     -1.062594     1.052222    -0.411450
H     -1.625782    -0.622735    -0.398536
H     -1.145501     0.162016     1.116967
H      0.745940    -0.485470    -1.205842
H      0.626049    -1.414738     0.282006
H      1.414800     1.263326     0.172447
9
Iteration 3, Energy=-154.0926959114, |grad|=0.002472
C     -0.914397     0.072380     0.053814
C      0.511758    -0.415038    -0.136522
O      1.449617     0.387939     0.527388
H     -1.062234     1.052545    -0.410434
H     -1.625669    -0.622240    -0.399380
H     -1.146005     0.160963     1.117086
H      0.745875    -0.485903    -1.205894
H      0.626189    -1.414330     0.282520
H      1.414866     1.263684     0.171422
9
Iteration 4, Energy=-154.0926970933, |grad|=0.002044
C     -0.914437     0.072222     0.053914
C      0.511747    -0.415034    -0.136486
O      1.449669     0.388163     0.527224
H     -1.062090     1.052546    -0.410034
H     -1.625710    -0.622071    -0.399856
H     -1.146133     0.160785     1.117151
H      0.745905    -0.486037    -1.205767
H      0.626091    -1.414357     0.282695
H      1.414958     1.263782     0.171158
9
Iteration 0, Energy=-153.9576896114, |grad|=0.972355
C     -0.864563     0.072927    -0.026642
C      0.388148    -0.225665    -0.092641
O      1.196595     0.238366     0.789799
H     -1.306603     0.769573    -0.661647
H     -1.668956    -0.821811    -0.077747
H     -1.044723     0.672685     1.104813
H      0.728598    -0.111255    -1.235318
H      0.654485    -1.395284     0.015292
H      1.868677     0.953192     0.322909
9
Iteration -1, Energy=-154.0926970933, |grad|=0.002044
C     -0.914437     0.072222     0.053914
C      0.511747    -0.415034    -0.136486
O      1.449669     0.388163     0.527224
H     -1.062090     1.052546    -0.410034
H     -1.625710    -0.622071    -0.399856
H     -1.146133     0.160785     1.117151
H      0.745905    -0.486037    -1.205767
H      0.626091    -1.414357     0.282695
H      1.414958     1.263782     0.171158
9
Iteration 0, Energy=-154.0926978540, |grad|=0.001269
C     -0.914424     0.071996     0.054124
C      0.511708    -0.414907    -0.136730
O      1.449733     0.388516     0.527092
H     -1.062036     1.052563    -0.409912
H     -1.625761    -0.622013    -0.400098
H     -1.146166     0.160797     1.117149
H      0.745921    -0.486085    -1.205585
H      0.626002    -1.414503     0.282791
H      1.415023     1.263635     0.171167
9
Iteration 1, Energy=-154.0926982725, |grad|=0.001163
C     -0.914437     0.071878     0.054194
C      0.511718    -0.414881    -0.136735
O      1.449755     0.388566     0.527016
H     -1.061976     1.052516    -0.409739
H     -1.625803    -0.621951    -0.400337
H     -1.146205     0.160790     1.117204
H      0.745952    -0.486131    -1.205505
H      0.625916    -1.414543     0.282843
H      1.415080     1.263757     0.171059
9
Iteration 2, Energy=-154.0927001874, |grad|=0.001388
C     -0.914651     0.071017     0.054612
C      0.511762    -0.415086    -0.136294
O      1.449976     0.389492     0.526112
H     -1.061341     1.051997    -0.407863
H     -1.626150    -0.621272    -0.402721
H     -1.146664     0.160507     1.117802
H      0.746281    -0.486632    -1.204965
H      0.625110    -1.414663     0.283303
H      1.415677     1.264641     0.170014
9
Iteration 3, Energy=-154.0927013120, |grad|=0.002469
C     -0.914838     0.070852     0.054890
C      0.511635    -0.414794    -0.136265
O      1.450054     0.389595     0.526042
H     -1.060894     1.052390    -0.406767
H     -1.626002    -0.620638    -0.403811
H     -1.147211     0.159423     1.117758
H      0.746245    -0.487204    -1.204727
H      0.625203    -1.414700     0.284051
H      1.415808     1.265077     0.168829
9
Iteration 4, Energy=-154.0927068300, |grad|=0.002079
C     -0.915040     0.071160     0.055010
C      0.511462    -0.414952    -0.135422
O      1.449910     0.390791     0.525477
H     -1.059659     1.054053    -0.403558
H     -1.625438    -0.618801    -0.406681
H     -1.149126     0.155521     1.117784
H      0.745921    -0.488939    -1.204314
H      0.625826    -1.413978     0.286184
H      1.416144     1.265145     0.165519
9
Iteration 0, Energy=-154.0421530087, |grad|=0.550753
C     -0.947767     0.105671     0.013588
C      0.563546    -0.324145    -0.150999
O      1.344764     0.286225     0.735228
H     -1.356441     0.641301    -0.658568
H     -1.508984    -0.959264    -0.068463
H     -0.980822     0.501111     0.949824
H      0.786645    -0.125911    -1.168154
H      0.686388    -1.387686    -0.104934
H      1.762860     1.110707     0.449258
9
Iteration -1, Energy=-154.0927068300, |grad|=0.002079
C     -0.915040     0.071160     0.055010
C      0.511462    -0.414952    -0.135422
O      1.449910     0.390791     0.525477
H     -1.059659     1.054053    -0.403558
H     -1.625438    -0.618801    -0.406681
H     -1.149126     0.155521     1.117784
H      0.745921    -0.488939    -1.204314
H      0.625826    -1.413978     0.286184
H      1.416144     1.265145     0.165519
9
Iteration 0, Energy=-154.0927072825, |grad|=0.001274
C     -0.914958     0.071155     0.054983
C      0.511516    -0.415016    -0.135421
O      1.449857     0.390916     0.525399
H     -1.059669     1.054129    -0.403552
H     -1.625459    -0.618809    -0.406701
H     -1.149165     0.155475     1.117819
H      0.745892    -0.488939    -1.204265
H      0.625831    -1.413921     0.286192
H      1.416156     1.265009     0.165545
9
Iteration 1, Energy=-154.0927077278, |grad|=0.000728
C     -0.914755     0.071141     0.054914
C      0.511669    -0.415107    -0.135421
O      1.449705     0.391018     0.525271
H     -1.059684     1.054359    -0.403511
H     -1.625501    -0.618808    -0.406761
H     -1.149284     0.155305     1.117888
H      0.745805    -0.488958    -1.204131
H      0.625875    -1.413779     0.286257
H      1.416170     1.264828     0.165494
9
Iteration 2, Energy=-154.0927079408, |grad|=0.000749
C     -0.914663     0.071156     0.054874
C      0.511738    -0.415124    -0.135413
O      1.449627     0.391016     0.525236
H     -1.059670     1.054542    -0.403427
H     -1.625498    -0.618765    -0.406823
H     -1.149388     0.155102     1.117888
H      0.745740    -0.488999    -1.204057
H      0.625945    -1.413692     0.286364
H      1.416170     1.264764     0.165357
9
Iteration 0, Energy=-154.0468348866, |grad|=0.394788
C     -1.033540     0.112580     0.086737
C      0.406288    -0.242463    -0.278574
O      1.359224     0.330387     0.784280
H     -1.325123     0.833011    -0.640226
H     -1.501134    -0.797504     0.090451
H     -0.989195     0.595230     1.103612
H      0.798034    -0.141129    -1.250941
H      0.496812    -1.460965    -0.134381
H      1.890438     0.960251     0.392900
9
Iteration -1, Energy=-154.0927079408, |grad|=0.000749
C     -0.914663     0.071156     0.054874
C      0.511738    -0.415124    -0.135413
O      1.449627     0.391016     0.525236
H     -1.059670     1.054542    -0.403427
H     -1.625498    -0.618765    -0.406823
H     -1.149388     0.155102     1.117888
H      0.745740    -0.488999    -1.204057
H      0.625945    -1.413692     0.286364
H      1.416170     1.264764     0.165357
9
Iteration 0, Energy=-154.0927081250, |grad|=0.001294
C     -0.914785     0.071233     0.054883
C      0.511643    -0.415019    -0.135365
O      1.449688     0.390863     0.525358
H     -1.059591     1.054642    -0.403228
H     -1.625407    -0.618632    -0.406918
H     -1.149479     0.154807     1.117763
H      0.745715    -0.489097    -1.204099
H      0.626062    -1.413696     0.286560
H      1.416154     1.264899     0.165044
9
Iteration 0, Energy=-154.0206905086, |grad|=0.634308
C     -0.960997     0.123660     0.111430
C      0.569860    -0.226448    -0.245290
O      1.351226     0.347875     0.787903
H     -1.409402     0.683598    -0.642009
H     -1.607645    -0.949697     0.100298
H     -1.022594     0.561337     0.938499
H      0.693510    -0.096287    -1.283906
H      0.498361    -1.427514    -0.056191
H      1.888276     0.980532     0.377408
9
Iteration -1, Energy=-154.0927081250, |grad|=0.001294
C     -0.914785     0.071233     0.054883
C      0.511643    -0.415019    -0.135365
O      1.449688     0.390863     0.525358
H     -1.059591     1.054642    -0.403228
H     -1.625407    -0.618632    -0.406918
H     -1.149479     0.154807     1.117763
H      0.745715    -0.489097    -1.204099
H      0.626062    -1.413696     0.286560
H      1.416154     1.264899     0.165044
9
Iteration 0, Energy=-154.0927083498, |grad|=0.000634
C     -0.914749     0.071241     0.054870
C      0.511651    -0.415097    -0.135347
O      1.449672     0.391086     0.525268
H     -1.059582     1.054696    -0.403178
H     -1.625412    -0.618614    -0.406970
H     -1.149522     0.154736     1.117782
H      0.745700    -0.489113    -1.204074
H      0.626066    -1.413650     0.286585
H      1.416176     1.264715     0.165065
9
Iteration 0, Energy=-154.0132496047, |grad|=0.637914
C     -0.864552     0.108018     0.060165
C      0.413419    -0.278723    -0.241539
O      1.186613     0.298385     0.657121
H     -1.284522     0.793781    -0.727628
H     -1.597439    -0.957367     0.038439
H     -1.038970     0.539403     1.030835
H      0.737350    -0.203036    -1.256394
H      0.600824    -1.351837     0.016587
H      1.904168     1.000667     0.296514
9
Iteration -1, Energy=-154.0927083498, |grad|=0.000634
C     -0.914749     0.071241     0.054870
C      0.511651    -0.415097    -0.135347
O      1.449672     0.391086     0.525268
H     -1.059582     1.054696    -0.403178
H     -1.625412    -0.618614    -0.406970
H     -1.149522     0.154736     1.117782
H      0.745700    -0.489113    -1.204074
H      0.626066    -1.413650     0.286585
H      1.416176     1.264715     0.165065
9
Iteration 0, Energy=-154.0927085037, |grad|=0.001501
C     -0.914688     0.071225     0.054857
C      0.511737    -0.415044    -0.135307
O      1.449585     0.390894     0.525276
H     -1.059514     1.054903    -0.402949
H     -1.625401    -0.618497    -0.407190
H     -1.149695     0.154418     1.117804
H      0.745641    -0.489218    -1.203978
H      0.626134    -1.413570     0.286784
H      1.416201     1.264889     0.164704
9
Iteration 0, Energy=-154.0257428156, |grad|=0.592234
C     -0.924831     0.129299     0.071025
C      0.521420    -0.249305    -0.116700
O      1.365816     0.230533     0.698196
H     -1.301272     0.729168    -0.822629
H     -1.682901    -0.804882     0.073260
H     -1.039412     0.680696     1.098905
H      0.852158    -0.149054    -1.285016
H      0.511573    -1.482046     0.004235
H      1.745892     0.949140     0.436603
9
Iteration -1, Energy=-154.0927085037, |grad|=0.001501
C     -0.914688     0.071225     0.054857
C      0.511737    -0.415044    -0.135307
O      1.449585     0.390894     0.525276
H     -1.059514     1.054903    -0.402949
H     -1.625401    -0.618497    -0.407190
H     -1.149695     0.154418     1.117804
H      0.745641    -0.489218    -1.203978
H      0.626134    -1.413570     0.286784
H      1.416201     1.264889     0.164704
9
Iteration 0, Energy=-154.0927087789, |grad|=0.000546
C     -0.914704     0.071242     0.054862
C      0.511695    -0.415103    -0.135294
O      1.449613     0.391140     0.525208
H     -1.059497     1.054917    -0.402896
H     -1.625388    -0.618469    -0.407232
H     -1.149719     0.154360     1.117792
H      0.745641    -0.489238    -1.203982
H      0.626138    -1.413555     0.286808
H      1.416221     1.264706     0.164733
9
Iteration 0, Energy=-154.0483681407, |grad|=0.311109
C     -0.871403     0.112583     0.026139
C      0.559550    -0.330387    -0.148920
O      1.274057     0.404003     0.827293
H     -1.447754     0.682200    -0.735877
H     -1.543454    -0.914587     0.045769
H     -1.063009     0.695602     0.925411
H      0.754539    -0.227895    -1.152664
H      0.620175    -1.447760    -0.141008
H      1.858704     0.949592     0.319858
9
Iteration -1, Energy=-154.0927087789, |grad|=0.000546
C     -0.914704     0.071242     0.054862
C      0.511695    -0.415103    -0.135294
O      1.449613     0.391140     0.525208
H     -1.059497     1.054917    -0.402896
H     -1.625388    -0.618469    -0.407232
H     -1.149719     0.154360     1.117792
H      0.745641    -0.489238    -1.203982
H      0.626138    -1.413555     0.286808
H      1.416221     1.264706     0.164733
9
Iteration 0, Energy=-154.0927093808, |grad|=0.002258
C     -0.914930     0.071305     0.054943
C      0.511542    -0.414974    -0.135062
O      1.449682     0.391179     0.525225
H     -1.059151     1.055291    -0.401913
H     -1.625202    -0.617922    -0.408064
H     -1.150222     0.153264     1.117669
H      0.745584    -0.489671    -1.203903
H      0.626338    -1.413449     0.287500
H      1.416359     1.264977     0.163605
9
Iteration 1, Energy=-154.0927104288, |grad|=0.001797
C     -0.915013     0.071329     0.054995
C      0.511466    -0.414997    -0.134887
O      1.449692     0.391568     0.525074
H     -1.058888     1.055645    -0.401124
H     -1.625092    -0.617503    -0.408775
H     -1.150659     0.152380     1.117636
H      0.745520    -0.490012    -1.203778
H      0.626467    -1.413305     0.288030
H      1.416507     1.264895     0.162828
9
Iteration 2, Energy=-154.0927156815, |grad|=0.002136
C     -0.915342     0.071315     0.055399
C      0.511229    -0.415145    -0.133488
O      1.449460     0.394301     0.523739
H     -1.056735     1.058799    -0.394556
H     -1.624330    -0.614064    -0.414882
H     -1.154440     0.145024     1.117630
H      0.744919    -0.492857    -1.202444
H      0.627450    -1.411988     0.292436
H      1.417788     1.264614     0.156165
9
Iteration 3, Energy=-154.0927183884, |grad|=0.001300
C     -0.915271     0.071007     0.055761
C      0.511453    -0.415249    -0.132429
O      1.448951     0.396205     0.522483
H     -1.055016     1.061421    -0.389177
H     -1.623883    -0.611299    -0.420109
H     -1.157635     0.139170     1.117937
H      0.744402    -0.495188    -1.201014
H      0.628046    -1.410825     0.295911
H      1.418954     1.264758     0.150636
9
Iteration 4, Energy=-154.0927191876, |grad|=0.000478
C     -0.915357     0.070602     0.056105
C      0.511404    -0.415204    -0.131807
O      1.448797     0.397232     0.521807
H     -1.054131     1.062080    -0.386357
H     -1.623689    -0.609845    -0.422923
H     -1.159132     0.136726     1.118193
H      0.744378    -0.496406    -1.200294
H      0.627973    -1.410440     0.297307
H      1.419757     1.265255     0.147971
9
Iteration 0, Energy=-154.0368058763, |grad|=0.507637
C     -0.906388     0.076573    -0.028904
C      0.388313    -0.321289    -0.215257
O      1.205791     0.323302     0.778269
H     -1.325502     0.765275    -0.661699
H     -1.665600    -0.917857     0.104499
H     -0.986824     0.620131     0.986449
H      0.872289    -0.040996    -1.139875
H      0.639245    -1.340474    -0.030256
H      1.756777     0.974901     0.313193
