9
Iteration -1, Energy=-154.0837996503, |grad|=0.044117
C     -0.977020     0.054531     0.039344
C      0.487693    -0.332548    -0.192952
O      1.302254     0.336299     0.743792
H     -1.353582     0.729531    -0.729129
H     -1.591671    -0.850511     0.025441
H     -1.069217     0.581118     0.999619
H      0.788253    -0.138478    -1.230198
H      0.594696    -1.412625    -0.042175
H      1.818594     1.032682     0.386258
9
Iteration 0, Energy=-154.0843833249, |grad|=0.059413
C     -0.977280     0.053879     0.035312
C      0.484312    -0.325026    -0.187773
O      1.305233     0.320355     0.751886
H     -1.354690     0.731318    -0.731808
H     -1.597106    -0.844075     0.028915
H     -1.069673     0.569254     0.994917
H      0.790027    -0.136048    -1.225589
H      0.600639    -1.406722    -0.038040
H      1.818537     1.037066     0.372179
9
Iteration 1, Energy=-154.0849708820, |grad|=0.035094
C     -0.978177     0.054365     0.032267
C      0.483032    -0.324225    -0.185418
O      1.313796     0.319380     0.752837
H     -1.355398     0.732475    -0.733440
H     -1.600947    -0.840538     0.030813
H     -1.070298     0.562238     0.992956
H      0.791269    -0.133974    -1.221992
H      0.603824    -1.402234    -0.035695
H      1.812900     1.032512     0.367673
9
Iteration 2, Energy=-154.0855525641, |grad|=0.015882
C     -0.980572     0.055962     0.025149
C      0.485382    -0.322798    -0.179253
O      1.331056     0.312521     0.753421
H     -1.357325     0.736354    -0.738314
H     -1.612045    -0.832437     0.034509
H     -1.072982     0.545639     0.990668
H      0.794820    -0.127776    -1.211446
H      0.611494    -1.392164    -0.028851
H      1.800172     1.024698     0.354117
9
Iteration 3, Energy=-154.0857041185, |grad|=0.012918
C     -0.979866     0.055951     0.024226
C      0.487718    -0.323802    -0.177507
O      1.336536     0.309057     0.751367
H     -1.357812     0.739262    -0.740843
H     -1.617745    -0.830150     0.033355
H     -1.075975     0.541528     0.993742
H      0.798074    -0.123818    -1.206927
H      0.613990    -1.392890    -0.024920
H      1.795081     1.024862     0.347508
9
Iteration 4, Energy=-154.0858879114, |grad|=0.019755
C     -0.984349     0.059975     0.025899
C      0.492191    -0.332712    -0.172545
O      1.350274     0.301923     0.745186
H     -1.353411     0.743306    -0.740109
H     -1.629306    -0.822421     0.024813
H     -1.085134     0.532524     1.000771
H      0.809041    -0.114233    -1.198539
H      0.618760    -1.399964    -0.015309
H      1.781934     1.031603     0.329834
9
Iteration 0, Energy=-153.8635286004, |grad|=1.394125
C     -0.853455    -0.052196     0.142499
C      0.587919    -0.421539    -0.089050
O      1.176978     0.224784     0.637673
H     -1.457013     0.633975    -0.633223
H     -1.493321    -0.762570    -0.078241
H     -0.971031     0.696439     1.111163
H      0.887406    -0.040609    -1.335774
H      0.490028    -1.326110     0.055970
H      1.932490     0.947825     0.488982
9
Iteration -1, Energy=-154.0858879114, |grad|=0.019755
C     -0.984349     0.059975     0.025899
C      0.492191    -0.332712    -0.172545
O      1.350274     0.301923     0.745186
H     -1.353411     0.743306    -0.740109
H     -1.629306    -0.822421     0.024813
H     -1.085134     0.532524     1.000771
H      0.809041    -0.114233    -1.198539
H      0.618760    -1.399964    -0.015309
H      1.781934     1.031603     0.329834
9
Iteration 0, Energy=-154.0859565451, |grad|=0.009760
C     -0.981954     0.057697     0.026682
C      0.490914    -0.330743    -0.173223
O      1.350611     0.302731     0.744626
H     -1.352888     0.744321    -0.739948
H     -1.629267    -0.822193     0.023716
H     -1.085654     0.533271     1.001545
H      0.808783    -0.115457    -1.198207
H      0.618427    -1.401522    -0.015309
H      1.781028     1.031895     0.330117
9
Iteration 1, Energy=-154.0859975546, |grad|=0.009758
C     -0.979824     0.056415     0.027604
C      0.490388    -0.330369    -0.173284
O      1.350379     0.303304     0.743840
H     -1.351326     0.745188    -0.738538
H     -1.629111    -0.822165     0.021705
H     -1.086398     0.534042     1.002367
H      0.808331    -0.117405    -1.198184
H      0.617654    -1.402515    -0.015595
H      1.779906     1.033506     0.330084
9
Iteration 2, Energy=-154.0860846868, |grad|=0.014129
C     -0.976153     0.054511     0.030372
C      0.490270    -0.331176    -0.173151
O      1.350274     0.305554     0.741346
H     -1.345762     0.747466    -0.733449
H     -1.628222    -0.821957     0.015372
H     -1.088386     0.535496     1.004344
H      0.806840    -0.123462    -1.198516
H      0.615292    -1.404803    -0.016344
H      1.775846     1.038371     0.330025
9
Iteration 3, Energy=-154.0861938558, |grad|=0.019303
C     -0.972940     0.053201     0.034639
C      0.490891    -0.333048    -0.171924
O      1.350322     0.306741     0.738365
H     -1.335240     0.752593    -0.724820
H     -1.626393    -0.821279     0.004225
H     -1.091206     0.535669     1.007862
H      0.804117    -0.134328    -1.200232
H      0.612077    -1.408864    -0.016150
H      1.768372     1.049314     0.328034
9
Iteration 4, Energy=-154.0863281009, |grad|=0.019805
C     -0.969211     0.053445     0.040207
C      0.491693    -0.339449    -0.169597
O      1.355035     0.312665     0.731446
H     -1.317962     0.762525    -0.711517
H     -1.623841    -0.820179    -0.013760
H     -1.095249     0.533216     1.014150
H      0.799524    -0.151887    -1.203281
H      0.607655    -1.413863    -0.014183
H      1.752356     1.063527     0.326535
9
Iteration 0, Energy=-153.7888212425, |grad|=3.026021
C     -0.853455    -0.052196     0.142499
C      0.587919    -0.421539    -0.089050
O      1.376978     0.424784     0.637673
H     -1.257013     0.633975    -0.633223
H     -1.493321    -0.962570     0.121759
H     -0.971031     0.496439     0.911163
H      0.687406    -0.040609    -1.335774
H      0.690028    -1.326110     0.055970
H      1.732490     0.947825     0.488982
9
Iteration -1, Energy=-154.0863281009, |grad|=0.019805
C     -0.969211     0.053445     0.040207
C      0.491693    -0.339449    -0.169597
O      1.355035     0.312665     0.731446
H     -1.317962     0.762525    -0.711517
H     -1.623841    -0.820179    -0.013760
H     -1.095249     0.533216     1.014150
H      0.799524    -0.151887    -1.203281
H      0.607655    -1.413863    -0.014183
H      1.752356     1.063527     0.326535
9
Iteration 0, Energy=-154.0864181960, |grad|=0.026360
C     -0.973739     0.056865     0.038188
C      0.494543    -0.340611    -0.168995
O      1.355158     0.306477     0.732479
H     -1.317796     0.765164    -0.713003
H     -1.624087    -0.818925    -0.013094
H     -1.093940     0.527729     1.014485
H      0.798953    -0.151692    -1.203085
H      0.609709    -1.412197    -0.010183
H      1.751199     1.067189     0.323207
9
Iteration 1, Energy=-154.0865155175, |grad|=0.015555
C     -0.973881     0.057293     0.037266
C      0.493912    -0.340773    -0.168957
O      1.357492     0.307167     0.731519
H     -1.317993     0.766916    -0.714035
H     -1.624502    -0.818362    -0.012978
H     -1.093511     0.525440     1.015058
H      0.798879    -0.151702    -1.203036
H      0.610589    -1.411990    -0.008274
H      1.749015     1.066010     0.323436
9
Iteration 2, Energy=-154.0866646141, |grad|=0.011495
C     -0.974536     0.059362     0.033651
C      0.492651    -0.340910    -0.168521
O      1.364038     0.305325     0.729015
H     -1.318572     0.773902    -0.717738
H     -1.626277    -0.815959    -0.012843
H     -1.091780     0.515979     1.017321
H      0.798483    -0.152027    -1.202738
H      0.614096    -1.411021    -0.000242
H      1.741897     1.065348     0.322096
9
Iteration 3, Energy=-154.0867353348, |grad|=0.010806
C     -0.973285     0.060468     0.031431
C      0.492074    -0.341193    -0.168263
O      1.367653     0.302363     0.726813
H     -1.318528     0.779122    -0.719068
H     -1.628001    -0.813683    -0.014200
H     -1.090764     0.508984     1.019219
H      0.798318    -0.153245    -1.202371
H      0.615989    -1.410325     0.006137
H      1.736543     1.067510     0.320302
9
Iteration 4, Energy=-154.0868700267, |grad|=0.014273
C     -0.972566     0.063465     0.028121
C      0.494287    -0.344635    -0.168175
O      1.375511     0.297910     0.719619
H     -1.315762     0.789286    -0.716611
H     -1.631209    -0.806684    -0.021327
H     -1.088682     0.493734     1.023014
H      0.798302    -0.158928    -1.201944
H      0.617708    -1.408978     0.020301
H      1.722409     1.074830     0.317002
9
Iteration 0, Energy=-153.9196957659, |grad|=0.971126
C     -1.053455     0.147804    -0.057501
C      0.587919    -0.421539    -0.089050
O      1.178323     0.336117     0.837673
H     -1.257013     0.833975    -0.633223
H     -1.493321    -0.962570     0.121759
H     -0.971031     0.496439     1.111163
H      0.687406    -0.240609    -1.335774
H      0.690028    -1.526110     0.055970
H      1.932490     1.120779     0.293962
9
Iteration -1, Energy=-154.0868700267, |grad|=0.014273
C     -0.972566     0.063465     0.028121
C      0.494287    -0.344635    -0.168175
O      1.375511     0.297910     0.719619
H     -1.315762     0.789286    -0.716611
H     -1.631209    -0.806684    -0.021327
H     -1.088682     0.493734     1.023014
H      0.798302    -0.158928    -1.201944
H      0.617708    -1.408978     0.020301
H      1.722409     1.074830     0.317002
9
Iteration 0, Energy=-154.0869499029, |grad|=0.023998
C     -0.968993     0.061177     0.031068
C      0.493342    -0.343214    -0.168027
O      1.373605     0.296820     0.719891
H     -1.313116     0.789536    -0.711749
H     -1.631514    -0.806235    -0.026696
H     -1.089309     0.495670     1.023827
H      0.799216    -0.163435    -1.203842
H      0.615076    -1.412188     0.019855
H      1.721693     1.081869     0.315673
9
Iteration 1, Energy=-154.0870470516, |grad|=0.014857
C     -0.968112     0.060579     0.032380
C      0.493525    -0.344457    -0.168165
O      1.374200     0.299612     0.718543
H     -1.311215     0.789670    -0.708464
H     -1.631466    -0.805879    -0.030021
H     -1.089599     0.496555     1.024486
H      0.799602    -0.166283    -1.204701
H      0.613318    -1.413178     0.019466
H      1.719746     1.083381     0.316477
9
Iteration 2, Energy=-154.0871875099, |grad|=0.010650
C     -0.966246     0.059010     0.036431
C      0.495713    -0.348312    -0.168611
O      1.374861     0.305733     0.714565
H     -1.304411     0.791170    -0.697606
H     -1.631097    -0.804536    -0.041338
H     -1.090355     0.498555     1.027139
H      0.800426    -0.176559    -1.207021
H      0.607806    -1.416164     0.018845
H      1.713302     1.091103     0.317597
9
Iteration 3, Energy=-154.0872659718, |grad|=0.012421
C     -0.965389     0.058629     0.037743
C      0.496659    -0.349725    -0.168514
O      1.375982     0.307265     0.711926
H     -1.300358     0.795071    -0.693142
H     -1.630832    -0.803715    -0.047396
H     -1.090306     0.497026     1.029523
H      0.800216    -0.183171    -1.207667
H      0.606159    -1.417517     0.020266
H      1.707869     1.096137     0.317261
9
Iteration 4, Energy=-154.0879345582, |grad|=0.032345
C     -0.954722     0.062880     0.046477
C      0.500140    -0.367773    -0.163690
O      1.393081     0.317854     0.683295
H     -1.255817     0.842707    -0.647501
H     -1.628484    -0.793125    -0.110495
H     -1.088388     0.468120     1.054424
H      0.796905    -0.253316    -1.216482
H      0.594281    -1.429024     0.043693
H      1.643003     1.151677     0.310279
9
Iteration 0, Energy=-153.9116088620, |grad|=0.696898
C     -0.853455     0.147804    -0.057501
C      0.587919    -0.221539    -0.289050
O      1.176978     0.224784     0.837673
H     -1.257013     0.833975    -0.833223
H     -1.693321    -0.762570     0.121759
H     -0.971031     0.496439     1.111163
H      0.687406    -0.040609    -1.335774
H      0.690028    -1.526110     0.055970
H      1.932490     1.147825     0.288982
9
Iteration -1, Energy=-154.0879345582, |grad|=0.032345
C     -0.954722     0.062880     0.046477
C      0.500140    -0.367773    -0.163690
O      1.393081     0.317854     0.683295
H     -1.255817     0.842707    -0.647501
H     -1.628484    -0.793125    -0.110495
H     -1.088388     0.468120     1.054424
H      0.796905    -0.253316    -1.216482
H      0.594281    -1.429024     0.043693
H      1.643003     1.151677     0.310279
9
Iteration 0, Energy=-154.0882287152, |grad|=0.026992
C     -0.955042     0.058919     0.044642
C      0.499888    -0.360733    -0.166618
O      1.394771     0.314746     0.681468
H     -1.256325     0.846982    -0.650912
H     -1.626830    -0.787294    -0.108110
H     -1.088065     0.461721     1.053907
H      0.794944    -0.252255    -1.213839
H      0.597679    -1.430832     0.050250
H      1.638980     1.148746     0.309212
9
Iteration 1, Energy=-154.0884518122, |grad|=0.021363
C     -0.954425     0.061247     0.041988
C      0.499606    -0.361499    -0.166045
O      1.396366     0.312239     0.679577
H     -1.256471     0.849500    -0.652612
H     -1.626912    -0.784205    -0.106511
H     -1.087699     0.455006     1.053214
H      0.793591    -0.250600    -1.213385
H      0.600617    -1.428630     0.055618
H      1.635327     1.146943     0.308156
9
Iteration 2, Energy=-154.0886885192, |grad|=0.037733
C     -0.949261     0.069988     0.034862
C      0.499791    -0.367100    -0.167530
O      1.405068     0.299324     0.676932
H     -1.255072     0.863129    -0.658373
H     -1.632055    -0.775026    -0.106852
H     -1.086270     0.429078     1.055204
H      0.788476    -0.247342    -1.214059
H      0.609943    -1.421958     0.079466
H      1.619380     1.149906     0.300350
9
Iteration 3, Energy=-154.0888259896, |grad|=0.025512
C     -0.950662     0.071295     0.032129
C      0.500717    -0.369413    -0.164719
O      1.409283     0.305612     0.670332
H     -1.253285     0.865990    -0.657554
H     -1.632507    -0.771148    -0.108567
H     -1.085546     0.422696     1.056323
H      0.787878    -0.247726    -1.215650
H      0.611295    -1.421020     0.085080
H      1.612826     1.143714     0.302626
9
Iteration 4, Energy=-154.0889089519, |grad|=0.010397
C     -0.951083     0.069786     0.034125
C      0.501060    -0.368089    -0.164991
O      1.407199     0.304803     0.671862
H     -1.252947     0.864174    -0.656014
H     -1.632240    -0.772877    -0.109783
H     -1.085762     0.426912     1.056371
H      0.788738    -0.249177    -1.215591
H      0.609459    -1.422589     0.081614
H      1.615575     1.147057     0.302407
9
Iteration 0, Energy=-153.9509764582, |grad|=0.855340
C     -0.853455     0.147804     0.142499
C      0.387919    -0.421539    -0.089050
O      1.176978     0.424784     0.837673
H     -1.457013     0.633975    -0.633223
H     -1.493321    -0.962570     0.121759
H     -0.971031     0.696439     0.911163
H      0.687406    -0.040609    -1.335774
H      0.490028    -1.526110    -0.144030
H      1.732490     0.947825     0.488982
9
Iteration -1, Energy=-154.0889089519, |grad|=0.010397
C     -0.951083     0.069786     0.034125
C      0.501060    -0.368089    -0.164991
O      1.407199     0.304803     0.671862
H     -1.252947     0.864174    -0.656014
H     -1.632240    -0.772877    -0.109783
H     -1.085762     0.426912     1.056371
H      0.788738    -0.249177    -1.215591
H      0.609459    -1.422589     0.081614
H      1.615575     1.147057     0.302407
9
Iteration 0, Energy=-154.0889789616, |grad|=0.022953
C     -0.951175     0.067619     0.036628
C      0.501645    -0.366182    -0.164979
O      1.406460     0.303759     0.668775
H     -1.248757     0.865263    -0.650395
H     -1.632442    -0.770739    -0.116483
H     -1.085485     0.426264     1.057394
H      0.789216    -0.255176    -1.215097
H      0.607631    -1.425150     0.082848
H      1.612908     1.154341     0.301308
9
Iteration 1, Energy=-154.0890799686, |grad|=0.016298
C     -0.950622     0.066903     0.037904
C      0.501357    -0.367366    -0.164720
O      1.407400     0.306531     0.665806
H     -1.245694     0.866364    -0.646220
H     -1.632887    -0.769578    -0.121505
H     -1.085383     0.425494     1.058562
H      0.789533    -0.259518    -1.215138
H      0.606237    -1.425909     0.083631
H      1.610058     1.157079     0.301681
9
Iteration 2, Energy=-154.0893279354, |grad|=0.015040
C     -0.946837     0.064367     0.042812
C      0.500718    -0.374148    -0.163542
O      1.411823     0.316111     0.653885
H     -1.231153     0.874117    -0.627317
H     -1.635413    -0.764325    -0.145274
H     -1.085197     0.419944     1.065353
H      0.790083    -0.280588    -1.215930
H      0.600491    -1.428371     0.088836
H      1.595486     1.172894     0.301179
9
Iteration 3, Energy=-154.0895194540, |grad|=0.020307
C     -0.944589     0.062727     0.044954
C      0.502229    -0.376885    -0.163430
O      1.416292     0.321893     0.645716
H     -1.220267     0.884667    -0.615524
H     -1.636463    -0.758938    -0.161663
H     -1.085310     0.411287     1.071139
H      0.788550    -0.296744    -1.217055
H      0.598500    -1.430909     0.096498
H      1.581058     1.182902     0.299365
9
Iteration 4, Energy=-154.0902686462, |grad|=0.035122
C     -0.930943     0.062666     0.052642
C      0.510630    -0.396736    -0.158150
O      1.440755     0.346467     0.600617
H     -1.159279     0.946921    -0.550861
H     -1.641367    -0.727735    -0.250054
H     -1.086309     0.353872     1.101761
H      0.778113    -0.385076    -1.225996
H      0.592104    -1.440291     0.144449
H      1.496295     1.239912     0.285592
9
Iteration 0, Energy=-153.9006277988, |grad|=0.874431
C     -0.853455    -0.052196     0.142499
C      0.387919    -0.221539    -0.289050
O      1.176978     0.406352     0.837673
H     -1.457013     0.833975    -0.833223
H     -1.693321    -0.962570     0.121759
H     -0.971031     0.696439     1.111163
H      0.887406    -0.040609    -1.135774
H      0.490028    -1.526110    -0.042991
H      1.932490     1.147825     0.488982
9
Iteration -1, Energy=-154.0902686462, |grad|=0.035122
C     -0.930943     0.062666     0.052642
C      0.510630    -0.396736    -0.158150
O      1.440755     0.346467     0.600617
H     -1.159279     0.946921    -0.550861
H     -1.641367    -0.727735    -0.250054
H     -1.086309     0.353872     1.101761
H      0.778113    -0.385076    -1.225996
H      0.592104    -1.440291     0.144449
H      1.496295     1.239912     0.285592
9
Iteration 0, Energy=-154.0908939526, |grad|=0.027020
C     -0.933232     0.067181     0.047306
C      0.510518    -0.391851    -0.160443
O      1.436716     0.339868     0.595994
H     -1.158590     0.947621    -0.551236
H     -1.633798    -0.717626    -0.242212
H     -1.087198     0.341715     1.094880
H      0.774675    -0.381509    -1.221426
H      0.599723    -1.437524     0.153597
H      1.491186     1.232126     0.283540
9
Iteration 1, Energy=-154.0912333381, |grad|=0.015511
C     -0.926080     0.073231     0.043692
C      0.504732    -0.395801    -0.158627
O      1.435607     0.335098     0.593327
H     -1.159289     0.953370    -0.554476
H     -1.630182    -0.710925    -0.235930
H     -1.088985     0.327343     1.089327
H      0.771489    -0.376780    -1.221184
H      0.608039    -1.429416     0.163406
H      1.484668     1.223881     0.280465
9
Iteration 2, Energy=-154.0913111146, |grad|=0.016609
C     -0.924448     0.073822     0.041918
C      0.506836    -0.395474    -0.160338
O      1.437163     0.330947     0.595295
H     -1.158840     0.959375    -0.557004
H     -1.631017    -0.709660    -0.235817
H     -1.090097     0.321346     1.091473
H      0.769013    -0.375679    -1.222102
H      0.610782    -1.428523     0.169787
H      1.480608     1.223847     0.276789
9
Iteration 3, Energy=-154.0913631954, |grad|=0.007699
C     -0.925039     0.074586     0.041549
C      0.508577    -0.396338    -0.160122
O      1.438637     0.333040     0.595176
H     -1.157998     0.961579    -0.557243
H     -1.632048    -0.709726    -0.237197
H     -1.090348     0.319246     1.093022
H      0.768261    -0.375770    -1.223462
H      0.611109    -1.428654     0.172122
H      1.478849     1.222036     0.276156
9
Iteration 4, Energy=-154.0913906250, |grad|=0.007264
C     -0.925764     0.075410     0.041692
C      0.509873    -0.397021    -0.159112
O      1.439982     0.334168     0.594717
H     -1.156555     0.963415    -0.556566
H     -1.633097    -0.709472    -0.239492
H     -1.090497     0.316915     1.094215
H      0.767779    -0.376344    -1.224978
H      0.611281    -1.428923     0.174544
H      1.476999     1.221852     0.274979
9
Iteration 0, Energy=-154.0130668136, |grad|=0.531956
C     -0.853455     0.147804     0.142499
C      0.387919    -0.221539    -0.289050
O      1.176978     0.424784     0.837673
H     -1.257013     0.833975    -0.633223
H     -1.493321    -0.762570     0.121759
H     -1.171031     0.696439     1.111163
H      0.687406    -0.240609    -1.335774
H      0.490028    -1.326110    -0.144030
H      1.932490     0.947825     0.488982
9
Iteration -1, Energy=-154.0913906250, |grad|=0.007264
C     -0.925764     0.075410     0.041692
C      0.509873    -0.397021    -0.159112
O      1.439982     0.334168     0.594717
H     -1.156555     0.963415    -0.556566
H     -1.633097    -0.709472    -0.239492
H     -1.090497     0.316915     1.094215
H      0.767779    -0.376344    -1.224978
H      0.611281    -1.428923     0.174544
H      1.476999     1.221852     0.274979
9
Iteration 0, Energy=-154.0914223721, |grad|=0.016537
C     -0.925512     0.074006     0.043306
C      0.507270    -0.396375    -0.158457
O      1.440202     0.333119     0.592075
H     -1.153180     0.963134    -0.551954
H     -1.632666    -0.706509    -0.244295
H     -1.090637     0.314645     1.093524
H      0.768164    -0.379115    -1.223442
H      0.610880    -1.429494     0.176399
H      1.475479     1.226588     0.272845
9
Iteration 1, Energy=-154.0914682519, |grad|=0.010123
C     -0.925383     0.073590     0.043722
C      0.506650    -0.397213    -0.158079
O      1.440525     0.335323     0.589904
H     -1.151270     0.963383    -0.549392
H     -1.632689    -0.705111    -0.247164
H     -1.090890     0.313242     1.093838
H      0.768125    -0.380740    -1.222661
H      0.610502    -1.429406     0.177405
H      1.474429     1.226931     0.272427
9
Iteration 2, Energy=-154.0915478200, |grad|=0.012005
C     -0.924740     0.072058     0.045060
C      0.505831    -0.399422    -0.156831
O      1.441327     0.340472     0.583282
H     -1.144579     0.965303    -0.540778
H     -1.633159    -0.700525    -0.257405
H     -1.092024     0.307969     1.095642
H      0.767594    -0.386736    -1.220223
H      0.609334    -1.429281     0.181429
H      1.470416     1.230162     0.269824
9
Iteration 3, Energy=-154.0916355192, |grad|=0.016723
C     -0.923616     0.070309     0.046588
C      0.506387    -0.401682    -0.155424
O      1.442517     0.345581     0.576380
H     -1.136330     0.969761    -0.530830
H     -1.634284    -0.695349    -0.270260
H     -1.093903     0.300493     1.098874
H      0.766289    -0.394699    -1.218190
H      0.608294    -1.429363     0.187317
H      1.464648     1.234948     0.265544
9
Iteration 4, Energy=-154.0918804800, |grad|=0.023599
C     -0.920526     0.066664     0.050879
C      0.508543    -0.407814    -0.150843
O      1.447672     0.360003     0.558048
H     -1.110604     0.987488    -0.500843
H     -1.637172    -0.678949    -0.309264
H     -1.100735     0.273690     1.108883
H      0.761173    -0.420669    -1.215171
H      0.607219    -1.430027     0.208118
H      1.444430     1.249615     0.250191
9
Iteration 0, Energy=-153.8459251959, |grad|=1.527964
C     -1.053455     0.147804     0.142499
C      0.587919    -0.221539    -0.089050
O      1.176978     0.224784     0.837673
H     -1.257013     0.833975    -0.833223
H     -1.693321    -0.962570    -0.078241
H     -0.971031     0.496439     0.911163
H      0.687406    -0.040609    -1.335774
H      0.690028    -1.326110     0.055970
H      1.932490     0.947825     0.288982
9
Iteration -1, Energy=-154.0918804800, |grad|=0.023599
C     -0.920526     0.066664     0.050879
C      0.508543    -0.407814    -0.150843
O      1.447672     0.360003     0.558048
H     -1.110604     0.987488    -0.500843
H     -1.637172    -0.678949    -0.309264
H     -1.100735     0.273690     1.108883
H      0.761173    -0.420669    -1.215171
H      0.607219    -1.430027     0.208118
H      1.444430     1.249615     0.250191
9
Iteration 0, Energy=-154.0919655475, |grad|=0.018392
C     -0.920668     0.067471     0.050497
C      0.509466    -0.405858    -0.151157
O      1.447449     0.354767     0.560641
H     -1.110778     0.989854    -0.501539
H     -1.636345    -0.678328    -0.308027
H     -1.101478     0.271399     1.108441
H      0.760368    -0.421364    -1.216509
H      0.608922    -1.430272     0.209891
H      1.443064     1.252332     0.247761
9
Iteration 1, Energy=-154.0920162391, |grad|=0.012822
C     -0.920519     0.068365     0.050103
C      0.509630    -0.406128    -0.151242
O      1.447571     0.355560     0.561088
H     -1.110898     0.991192    -0.501804
H     -1.635899    -0.678034    -0.307374
H     -1.101975     0.269956     1.108252
H      0.759909    -0.421716    -1.217278
H      0.609825    -1.429933     0.210717
H      1.442357     1.250737     0.247537
9
Iteration 2, Energy=-154.0921305251, |grad|=0.006788
C     -0.919334     0.073102     0.047828
C      0.510904    -0.406817    -0.151620
O      1.447490     0.356195     0.563792
H     -1.111442     0.998607    -0.502908
H     -1.633454    -0.676234    -0.304077
H     -1.104811     0.261859     1.107288
H      0.757374    -0.423821    -1.220910
H      0.614910    -1.427953     0.215495
H      1.438363     1.245061     0.245113
9
Iteration 3, Energy=-154.0921535091, |grad|=0.004914
C     -0.918131     0.074295     0.047086
C      0.511057    -0.407189    -0.151788
O      1.446644     0.355414     0.563276
H     -1.111176     1.001420    -0.502027
H     -1.632466    -0.674906    -0.304091
H     -1.106052     0.258399     1.106929
H      0.756616    -0.425086    -1.220615
H      0.616687    -1.426657     0.217602
H      1.436820     1.244310     0.243629
9
Iteration 4, Energy=-154.0921869467, |grad|=0.005945
C     -0.917679     0.075444     0.046422
C      0.510520    -0.406914    -0.151401
O      1.446229     0.355150     0.561198
H     -1.109340     1.006018    -0.498128
H     -1.630605    -0.671454    -0.306701
H     -1.108044     0.251698     1.106258
H      0.755917    -0.428574    -1.220121
H      0.619193    -1.425472     0.222232
H      1.433809     1.244106     0.240242
9
Iteration 0, Energy=-153.9213260459, |grad|=0.815353
C     -0.853455    -0.052196     0.142499
C      0.387919    -0.221539    -0.289050
O      1.176978     0.424784     0.837673
H     -1.457013     0.633975    -0.833223
H     -1.493321    -0.762570    -0.078241
H     -1.171031     0.496439     0.911163
H      0.887406    -0.240609    -1.335774
H      0.690028    -1.526110    -0.144030
H      1.932490     0.947825     0.288982
9
Iteration -1, Energy=-154.0921869467, |grad|=0.005945
C     -0.917679     0.075444     0.046422
C      0.510520    -0.406914    -0.151401
O      1.446229     0.355150     0.561198
H     -1.109340     1.006018    -0.498128
H     -1.630605    -0.671454    -0.306701
H     -1.108044     0.251698     1.106258
H      0.755917    -0.428574    -1.220121
H      0.619193    -1.425472     0.222232
H      1.433809     1.244106     0.240242
9
Iteration 0, Energy=-154.0922042526, |grad|=0.008397
C     -0.917227     0.075589     0.047145
C      0.510715    -0.408954    -0.151079
O      1.447089     0.357086     0.560208
H     -1.108316     1.005871    -0.496100
H     -1.631910    -0.671735    -0.309939
H     -1.108223     0.251453     1.107308
H      0.756138    -0.429584    -1.219645
H      0.617968    -1.424999     0.222409
H      1.433767     1.245274     0.239692
9
Iteration 1, Energy=-154.0922236261, |grad|=0.006312
C     -0.917371     0.074554     0.047635
C      0.510987    -0.408882    -0.150871
O      1.447635     0.357661     0.559337
H     -1.107262     1.006084    -0.494296
H     -1.632527    -0.671258    -0.312635
H     -1.108401     0.251059     1.108187
H      0.756312    -0.430721    -1.219209
H      0.617057    -1.425415     0.223057
H      1.433570     1.246919     0.238795
9
Iteration 2, Energy=-154.0922594988, |grad|=0.007183
C     -0.918537     0.070910     0.049219
C      0.511544    -0.408146    -0.149548
O      1.449357     0.361762     0.554956
H     -1.102910     1.007146    -0.486927
H     -1.633760    -0.668245    -0.322453
H     -1.109287     0.248258     1.110710
H      0.756871    -0.435474    -1.217877
H      0.614250    -1.427039     0.226184
H      1.432472     1.250828     0.235736
9
Iteration 3, Energy=-154.0922843093, |grad|=0.009941
C     -0.918420     0.070867     0.050107
C      0.511334    -0.408869    -0.148564
O      1.449781     0.362241     0.552617
H     -1.099780     1.008457    -0.481447
H     -1.633775    -0.665557    -0.328472
H     -1.110550     0.244063     1.111288
H      0.756734    -0.439126    -1.216965
H      0.613734    -1.426605     0.229126
H      1.430943     1.254528     0.232311
9
Iteration 4, Energy=-154.0923184009, |grad|=0.010952
C     -0.918005     0.070831     0.050565
C      0.510838    -0.409409    -0.147964
O      1.449927     0.363773     0.550176
H     -1.096866     1.010653    -0.476502
H     -1.633119    -0.662413    -0.333476
H     -1.112135     0.239083     1.111605
H      0.756248    -0.442765    -1.216093
H      0.613967    -1.425986     0.232469
H      1.429144     1.256233     0.229220
9
Iteration 0, Energy=-153.8102656727, |grad|=1.667601
C     -0.853455    -0.052196    -0.057501
C      0.587919    -0.221539    -0.089050
O      1.176978     0.224784     0.717855
H     -1.257013     0.633975    -0.633223
H     -1.493321    -0.762570    -0.078241
H     -1.171031     0.696439     1.026189
H      0.887406    -0.240609    -1.135774
H      0.490028    -1.526110     0.055970
H      1.932490     1.147825     0.288982
9
Iteration -1, Energy=-154.0923184009, |grad|=0.010952
C     -0.918005     0.070831     0.050565
C      0.510838    -0.409409    -0.147964
O      1.449927     0.363773     0.550176
H     -1.096866     1.010653    -0.476502
H     -1.633119    -0.662413    -0.333476
H     -1.112135     0.239083     1.111605
H      0.756248    -0.442765    -1.216093
H      0.613967    -1.425986     0.232469
H      1.429144     1.256233     0.229220
9
Iteration 0, Energy=-154.0923372542, |grad|=0.006217
C     -0.917660     0.070938     0.050276
C      0.510809    -0.409729    -0.148141
O      1.449828     0.365252     0.549865
H     -1.096863     1.011556    -0.476620
H     -1.632838    -0.662132    -0.333224
H     -1.112493     0.238272     1.111666
H      0.755937    -0.442962    -1.216136
H      0.614415    -1.425686     0.232887
H      1.428866     1.254492     0.229427
9
Iteration 1, Energy=-154.0923491176, |grad|=0.006308
C     -0.917286     0.071279     0.049958
C      0.510952    -0.409788    -0.148250
O      1.449563     0.365372     0.549916
H     -1.096796     1.012674    -0.476678
H     -1.632484    -0.661766    -0.332944
H     -1.112963     0.237099     1.111643
H      0.755524    -0.443282    -1.216245
H      0.615097    -1.425321     0.233546
H      1.428393     1.253733     0.229055
9
Iteration 2, Energy=-154.0923857057, |grad|=0.005564
C     -0.915977     0.073968     0.048799
C      0.511432    -0.410217    -0.148302
O      1.448504     0.364896     0.550441
H     -1.096022     1.017710    -0.476146
H     -1.630756    -0.659852    -0.332191
H     -1.115232     0.230785     1.110988
H      0.753623    -0.445164    -1.217086
H      0.618569    -1.423496     0.237079
H      1.425860     1.251371     0.226419
9
Iteration 3, Energy=-154.0923992253, |grad|=0.009760
C     -0.916032     0.073241     0.048362
C      0.510783    -0.409063    -0.148290
O      1.448809     0.365227     0.549720
H     -1.094026     1.021406    -0.473349
H     -1.629404    -0.656923    -0.334539
H     -1.117004     0.225874     1.111007
H      0.752676    -0.447737    -1.216868
H      0.620328    -1.423432     0.240697
H      1.423870     1.251407     0.223261
9
Iteration 4, Energy=-154.0924205020, |grad|=0.006981
C     -0.915826     0.074295     0.048429
C      0.510877    -0.409775    -0.147645
O      1.448771     0.365530     0.548935
H     -1.092593     1.023177    -0.471001
H     -1.629112    -0.655574    -0.336735
H     -1.118149     0.222590     1.110920
H      0.752123    -0.449411    -1.216773
H      0.621226    -1.422665     0.242734
H      1.422683     1.251833     0.221136
9
Iteration 0, Energy=-153.9235354827, |grad|=1.027851
C     -0.853455    -0.052196     0.142499
C      0.387919    -0.221539    -0.289050
O      1.176978     0.424784     0.837673
H     -1.457013     0.633975    -0.633223
H     -1.693321    -0.762570    -0.078241
H     -1.171031     0.496439     0.911163
H      0.687406    -0.240609    -1.135774
H      0.490028    -1.326110     0.055970
H      1.932490     0.947825     0.288982
9
Iteration -1, Energy=-154.0924205020, |grad|=0.006981
C     -0.915826     0.074295     0.048429
C      0.510877    -0.409775    -0.147645
O      1.448771     0.365530     0.548935
H     -1.092593     1.023177    -0.471001
H     -1.629112    -0.655574    -0.336735
H     -1.118149     0.222590     1.110920
H      0.752123    -0.449411    -1.216773
H      0.621226    -1.422665     0.242734
H      1.422683     1.251833     0.221136
9
Iteration 0, Energy=-154.0924292483, |grad|=0.007069
C     -0.915486     0.075702     0.049076
C      0.511555    -0.411585    -0.146897
O      1.448606     0.366355     0.548026
H     -1.092093     1.022364    -0.469713
H     -1.630052    -0.656061    -0.338491
H     -1.118237     0.222449     1.111076
H      0.752269    -0.449718    -1.216505
H      0.620569    -1.421940     0.242503
H      1.422869     1.252435     0.220926
9
Iteration 1, Energy=-154.0924367620, |grad|=0.004140
C     -0.915563     0.074940     0.049097
C      0.511465    -0.411065    -0.147042
O      1.448735     0.366323     0.547902
H     -1.091886     1.022524    -0.469410
H     -1.630008    -0.655737    -0.338933
H     -1.118313     0.222421     1.111293
H      0.752302    -0.449950    -1.216317
H      0.620423    -1.422273     0.242733
H      1.422845     1.252818     0.220677
9
Iteration 2, Energy=-154.0924493307, |grad|=0.003610
C     -0.915722     0.073361     0.049454
C      0.511409    -0.410565    -0.146994
O      1.449136     0.367082     0.546955
H     -1.090917     1.022632    -0.467689
H     -1.630268    -0.654867    -0.341257
H     -1.118628     0.222108     1.112014
H      0.752484    -0.450901    -1.215690
H      0.619668    -1.422861     0.243375
H      1.422838     1.254011     0.219831
9
Iteration 3, Energy=-154.0924620840, |grad|=0.004991
C     -0.915967     0.071896     0.050139
C      0.511388    -0.410608    -0.146515
O      1.449711     0.368509     0.545362
H     -1.089221     1.022689    -0.464595
H     -1.630744    -0.653556    -0.345185
H     -1.119229     0.221102     1.112927
H      0.752735    -0.452553    -1.214896
H      0.618600    -1.423310     0.244449
H      1.422728     1.255830     0.218313
9
Iteration 4, Energy=-154.0924849292, |grad|=0.006482
C     -0.916123     0.070636     0.051091
C      0.511186    -0.410958    -0.145738
O      1.450409     0.371459     0.542668
H     -1.085944     1.024235    -0.458886
H     -1.630853    -0.650564    -0.351740
H     -1.121016     0.217037     1.114013
H      0.752594    -0.456128    -1.213787
H      0.617959    -1.423437     0.247468
H      1.421788     1.257721     0.214912
9
Iteration 0, Energy=-153.9647105578, |grad|=0.998474
C     -1.053455    -0.052196     0.142499
C      0.387919    -0.221539    -0.089050
O      1.176978     0.424784     0.637673
H     -1.457013     0.633975    -0.633223
H     -1.493321    -0.762570    -0.078241
H     -1.171031     0.496439     0.911163
H      0.687406    -0.040609    -1.135774
H      0.690028    -1.326110    -0.144030
H      1.932490     0.947825     0.288982
9
Iteration -1, Energy=-154.0924849292, |grad|=0.006482
C     -0.916123     0.070636     0.051091
C      0.511186    -0.410958    -0.145738
O      1.450409     0.371459     0.542668
H     -1.085944     1.024235    -0.458886
H     -1.630853    -0.650564    -0.351740
H     -1.121016     0.217037     1.114013
H      0.752594    -0.456128    -1.213787
H      0.617959    -1.423437     0.247468
H      1.421788     1.257721     0.214912
9
Iteration 0, Energy=-154.0924938783, |grad|=0.004279
C     -0.915884     0.072170     0.051049
C      0.511539    -0.412065    -0.145111
O      1.450053     0.371015     0.542711
H     -1.085818     1.024475    -0.458560
H     -1.630884    -0.650660    -0.351839
H     -1.121292     0.216060     1.113753
H      0.752389    -0.456324    -1.214073
H      0.618375    -1.422544     0.247659
H      1.421523     1.257873     0.214410
9
Iteration 1, Energy=-154.0924991131, |grad|=0.003848
C     -0.915727     0.072483     0.050947
C      0.511550    -0.412091    -0.145139
O      1.449923     0.371057     0.542723
H     -1.085682     1.025124    -0.458407
H     -1.630665    -0.650389    -0.351831
H     -1.121595     0.215200     1.113644
H      0.752160    -0.456606    -1.214111
H      0.618798    -1.422318     0.248132
H      1.421238     1.257541     0.214042
9
Iteration 2, Energy=-154.0925063480, |grad|=0.013733
C     -0.914904     0.074352     0.049320
C      0.511569    -0.411367    -0.144552
O      1.448954     0.369548     0.542906
H     -1.083363     1.032257    -0.455193
H     -1.628046    -0.646321    -0.353312
H     -1.125113     0.205439     1.113114
H      0.749889    -0.460432    -1.214614
H      0.623066    -1.420359     0.253985
H      1.417948     1.256883     0.208345
9
Iteration 3, Energy=-154.0925291778, |grad|=0.004575
C     -0.914676     0.074850     0.049828
C      0.511436    -0.412225    -0.144708
O      1.449127     0.372054     0.542049
H     -1.082980     1.032562    -0.454430
H     -1.628232    -0.646173    -0.354261
H     -1.125404     0.204647     1.112961
H      0.749787    -0.460849    -1.214351
H      0.623055    -1.420112     0.254395
H      1.417886     1.255246     0.208517
9
Iteration 4, Energy=-154.0925343449, |grad|=0.003659
C     -0.914785     0.074496     0.050124
C      0.511468    -0.412247    -0.144667
O      1.449305     0.372202     0.541794
H     -1.082834     1.032050    -0.454031
H     -1.628551    -0.646247    -0.354951
H     -1.125268     0.205136     1.113120
H      0.749995    -0.460864    -1.214129
H      0.622566    -1.420338     0.254221
H      1.418104     1.255811     0.208518
9
Iteration 0, Energy=-153.9672414015, |grad|=0.952956
C     -1.053455    -0.037367     0.142499
C      0.387919    -0.222873    -0.089050
O      1.176978     0.424784     0.637673
H     -1.372516     0.633975    -0.633223
H     -1.493321    -0.762570    -0.078241
H     -1.171031     0.696439     0.911163
H      0.687406    -0.229786    -1.135774
H      0.490028    -1.515206     0.033620
H      1.932490     0.947825     0.293996
9
Iteration -1, Energy=-154.0925343449, |grad|=0.003659
C     -0.914785     0.074496     0.050124
C      0.511468    -0.412247    -0.144667
O      1.449305     0.372202     0.541794
H     -1.082834     1.032050    -0.454031
H     -1.628551    -0.646247    -0.354951
H     -1.125268     0.205136     1.113120
H      0.749995    -0.460864    -1.214129
H      0.622566    -1.420338     0.254221
H      1.418104     1.255811     0.208518
9
Iteration 0, Energy=-154.0925410133, |grad|=0.007602
C     -0.914835     0.073631     0.050664
C      0.511798    -0.412206    -0.144265
O      1.449498     0.371784     0.541007
H     -1.081981     1.031510    -0.452142
H     -1.629211    -0.645816    -0.357515
H     -1.125472     0.205153     1.113745
H      0.750292    -0.461552    -1.213428
H      0.621615    -1.420626     0.254558
H      1.418297     1.258124     0.207376
9
Iteration 1, Energy=-154.0925499687, |grad|=0.004052
C     -0.914923     0.073109     0.050932
C      0.511756    -0.412432    -0.144092
O      1.449745     0.372888     0.540271
H     -1.081487     1.031327    -0.451082
H     -1.629459    -0.645464    -0.358895
H     -1.125624     0.205033     1.114064
H      0.750445    -0.461973    -1.213094
H      0.621121    -1.420762     0.254779
H      1.418426     1.258275     0.207119
9
Iteration 2, Energy=-154.0925581718, |grad|=0.002870
C     -0.915207     0.071881     0.051559
C      0.511665    -0.412732    -0.143639
O      1.450303     0.374823     0.538723
H     -1.080180     1.031087    -0.448376
H     -1.629923    -0.644417    -0.362293
H     -1.126110     0.204390     1.114779
H      0.750760    -0.463164    -1.212345
H      0.620093    -1.421097     0.255556
H      1.418599     1.259230     0.206036
9
Iteration 3, Energy=-154.0925632351, |grad|=0.003445
C     -0.915335     0.071607     0.051803
C      0.511570    -0.412873    -0.143364
O      1.450503     0.375623     0.538077
H     -1.079362     1.031452    -0.446819
H     -1.629900    -0.643595    -0.364006
H     -1.126631     0.203262     1.115009
H      0.750754    -0.464061    -1.212101
H      0.619954    -1.421088     0.256365
H      1.418447     1.259673     0.205037
9
Iteration 4, Energy=-154.0926046947, |grad|=0.007999
C     -0.915445     0.070067     0.053612
C      0.511289    -0.414020    -0.141072
O      1.451374     0.382020     0.532400
H     -1.071825     1.036874    -0.432714
H     -1.629286    -0.635718    -0.379200
H     -1.132331     0.190694     1.117014
H      0.749910    -0.472838    -1.209767
H      0.619958    -1.420182     0.264867
H      1.416354     1.263103     0.194859
9
Iteration 0, Energy=-153.9841747975, |grad|=0.832381
C     -1.045514    -0.052196    -0.041615
C      0.387919    -0.221539    -0.089818
O      1.176978     0.424784     0.637673
H     -1.450818     0.833975    -0.791048
H     -1.693321    -0.775339    -0.065986
H     -1.171031     0.695820     0.911163
H      0.687406    -0.055677    -1.135774
H      0.663181    -1.326110     0.039804
H      1.932490     1.147825     0.288982
9
Iteration -1, Energy=-154.0926046947, |grad|=0.007999
C     -0.915445     0.070067     0.053612
C      0.511289    -0.414020    -0.141072
O      1.451374     0.382020     0.532400
H     -1.071825     1.036874    -0.432714
H     -1.629286    -0.635718    -0.379200
H     -1.132331     0.190694     1.117014
H      0.749910    -0.472838    -1.209767
H      0.619958    -1.420182     0.264867
H      1.416354     1.263103     0.194859
9
Iteration 0, Energy=-154.0926136892, |grad|=0.006748
C     -0.915109     0.070646     0.053325
C      0.511811    -0.413794    -0.140994
O      1.450832     0.379934     0.532954
H     -1.071862     1.037598    -0.432805
H     -1.629126    -0.635638    -0.378845
H     -1.132658     0.189830     1.116882
H      0.749564    -0.472976    -1.209732
H      0.620552    -1.419732     0.265272
H      1.415997     1.264133     0.193943
9
Iteration 1, Energy=-154.0926195113, |grad|=0.004163
C     -0.914982     0.070845     0.053221
C      0.511794    -0.413915    -0.141026
O      1.450751     0.380341     0.532886
H     -1.071872     1.037969    -0.432838
H     -1.629006    -0.635555    -0.378686
H     -1.132807     0.189411     1.116789
H      0.749424    -0.473044    -1.209749
H      0.620804    -1.419552     0.265451
H      1.415894     1.263500     0.193952
9
Iteration 2, Energy=-154.0926298197, |grad|=0.003031
C     -0.914466     0.071764     0.052741
C      0.511872    -0.414082    -0.141104
O      1.450295     0.380643     0.533011
H     -1.071876     1.039663    -0.432935
H     -1.628447    -0.635137    -0.377988
H     -1.133499     0.187435     1.116339
H      0.748776    -0.473405    -1.209848
H      0.622020    -1.418786     0.266375
H      1.415324     1.261905     0.193409
9
Iteration 3, Energy=-154.0926344984, |grad|=0.002504
C     -0.914261     0.072486     0.052404
C      0.511784    -0.414000    -0.141093
O      1.450086     0.380427     0.533327
H     -1.071747     1.041074    -0.432777
H     -1.627906    -0.634624    -0.377606
H     -1.134105     0.185607     1.115879
H      0.748277    -0.473830    -1.210035
H      0.623084    -1.418275     0.267343
H      1.414789     1.261133     0.192557
9
Iteration 4, Energy=-154.0926397579, |grad|=0.002976
C     -0.914327     0.073386     0.052252
C      0.511916    -0.414366    -0.140592
O      1.450018     0.380617     0.533139
H     -1.071037     1.042471    -0.431221
H     -1.627574    -0.633688    -0.378810
H     -1.135093     0.183007     1.115643
H      0.747834    -0.474761    -1.210050
H      0.623943    -1.417636     0.268884
H      1.414320     1.260970     0.190755
9
Iteration 0, Energy=-153.9072517522, |grad|=1.112356
C     -0.912125     0.147629     0.142499
C      0.387919    -0.221539    -0.089050
O      1.176978     0.225457     0.723567
H     -1.457013     0.633975    -0.633223
H     -1.493321    -0.861430    -0.077645
H     -1.171031     0.496439     0.911163
H      0.687406    -0.040609    -1.135774
H      0.503822    -1.326110    -0.118090
H      1.932490     1.118372     0.288982
9
Iteration -1, Energy=-154.0926397579, |grad|=0.002976
C     -0.914327     0.073386     0.052252
C      0.511916    -0.414366    -0.140592
O      1.450018     0.380617     0.533139
H     -1.071037     1.042471    -0.431221
H     -1.627574    -0.633688    -0.378810
H     -1.135093     0.183007     1.115643
H      0.747834    -0.474761    -1.210050
H      0.623943    -1.417636     0.268884
H      1.414320     1.260970     0.190755
9
Iteration 0, Energy=-154.0926414538, |grad|=0.002635
C     -0.914252     0.072599     0.052392
C      0.511719    -0.413790    -0.140824
O      1.450130     0.380486     0.533096
H     -1.070895     1.042713    -0.430970
H     -1.627547    -0.633394    -0.379228
H     -1.135214     0.182933     1.115776
H      0.747868    -0.474951    -1.209822
H      0.623850    -1.417953     0.269156
H      1.414341     1.261359     0.190422
9
Iteration 1, Energy=-154.0926426553, |grad|=0.001947
C     -0.914268     0.072581     0.052432
C      0.511723    -0.413920    -0.140732
O      1.450151     0.380727     0.532937
H     -1.070792     1.042676    -0.430713
H     -1.627583    -0.633308    -0.379528
H     -1.135282     0.182834     1.115836
H      0.747894    -0.475043    -1.209770
H      0.623772    -1.417914     0.269214
H      1.414386     1.261366     0.190324
9
Iteration 2, Energy=-154.0926478893, |grad|=0.002654
C     -0.914395     0.072158     0.052803
C      0.511751    -0.414444    -0.140193
O      1.450316     0.381946     0.531893
H     -1.069942     1.042550    -0.428667
H     -1.627823    -0.632512    -0.381938
H     -1.135869     0.181973     1.116301
H      0.748069    -0.475855    -1.209269
H      0.623218    -1.417798     0.269849
H      1.414675     1.261982     0.189222
9
Iteration 3, Energy=-154.0926522130, |grad|=0.003308
C     -0.914579     0.071666     0.053252
C      0.511812    -0.414707    -0.139702
O      1.450479     0.382973     0.530864
H     -1.068883     1.042664    -0.426227
H     -1.627997    -0.631455    -0.384739
H     -1.136670     0.180645     1.116765
H      0.748184    -0.476938    -1.208671
H      0.622748    -1.417754     0.270841
H      1.414906     1.262906     0.187616
9
Iteration 4, Energy=-154.0926620125, |grad|=0.005581
C     -0.914715     0.070491     0.053999
C      0.511612    -0.414963    -0.138622
O      1.450802     0.385778     0.528700
H     -1.066230     1.044573    -0.420370
H     -1.627839    -0.628350    -0.391079
H     -1.139226     0.175814     1.117651
H      0.748022    -0.480045    -1.207473
H      0.622524    -1.417380     0.274103
H      1.415050     1.264080     0.183091
9
Iteration 0, Energy=-153.9214506242, |grad|=1.206224
C     -1.053455     0.147804     0.142499
C      0.587919    -0.421539    -0.089050
O      1.376978     0.224784     0.811898
H     -1.257013     0.833975    -0.633223
H     -1.493321    -0.762570    -0.078241
H     -1.171031     0.496439     0.911163
H      0.687406    -0.240609    -1.135774
H      0.690028    -1.326110     0.055970
H      1.932490     1.147825     0.288982
9
Iteration -1, Energy=-154.0926620125, |grad|=0.005581
C     -0.914715     0.070491     0.053999
C      0.511612    -0.414963    -0.138622
O      1.450802     0.385778     0.528700
H     -1.066230     1.044573    -0.420370
H     -1.627839    -0.628350    -0.391079
H     -1.139226     0.175814     1.117651
H      0.748022    -0.480045    -1.207473
H      0.622524    -1.417380     0.274103
H      1.415050     1.264080     0.183091
9
Iteration 0, Energy=-154.0926658256, |grad|=0.004397
C     -0.914712     0.070827     0.053990
C      0.511854    -0.414506    -0.138819
O      1.450589     0.384435     0.529200
H     -1.066196     1.044962    -0.420391
H     -1.627690    -0.628265    -0.390878
H     -1.139397     0.175267     1.117439
H      0.747823    -0.480184    -1.207429
H      0.622903    -1.417352     0.274452
H      1.414826     1.264816     0.182437
9
Iteration 1, Energy=-154.0926681228, |grad|=0.002578
C     -0.914673     0.070949     0.053931
C      0.511816    -0.414607    -0.138801
O      1.450569     0.384768     0.529145
H     -1.066192     1.045143    -0.420387
H     -1.627620    -0.628218    -0.390807
H     -1.139476     0.175036     1.117388
H      0.747760    -0.480230    -1.207469
H      0.623027    -1.417255     0.274536
H      1.414789     1.264413     0.182464
9
Iteration 2, Energy=-154.0926716112, |grad|=0.002063
C     -0.914538     0.071436     0.053726
C      0.511794    -0.414693    -0.138786
O      1.450411     0.385049     0.529233
H     -1.066154     1.045906    -0.420359
H     -1.627330    -0.628009    -0.390521
H     -1.139814     0.174054     1.117149
H      0.747478    -0.480447    -1.207586
H      0.623583    -1.416930     0.274969
H      1.414570     1.263634     0.182174
9
Iteration 3, Energy=-154.0926743616, |grad|=0.002103
C     -0.914341     0.072038     0.053449
C      0.511779    -0.414707    -0.138723
O      1.450178     0.385000     0.529464
H     -1.066062     1.047025    -0.420224
H     -1.626928    -0.627661    -0.390234
H     -1.140328     0.172605     1.116834
H      0.747086    -0.480798    -1.207726
H      0.624370    -1.416477     0.275651
H      1.414246     1.262975     0.181511
9
Iteration 4, Energy=-154.0926774311, |grad|=0.001641
C     -0.914243     0.072382     0.053409
C      0.511801    -0.414699    -0.138619
O      1.450036     0.385118     0.529402
H     -1.065645     1.048152    -0.419248
H     -1.626643    -0.626997    -0.390966
H     -1.141080     0.170785     1.116635
H      0.746744    -0.481430    -1.207544
H      0.624972    -1.416089     0.276716
H      1.414057     1.262778     0.180214
9
Iteration 0, Energy=-153.9910912444, |grad|=0.835881
C     -0.871549    -0.052196     0.142499
C      0.387919    -0.221539    -0.089050
O      1.272205     0.424784     0.637673
H     -1.257013     0.833975    -0.633223
H     -1.493321    -0.762570    -0.078241
H     -1.171031     0.496439     1.111163
H      0.687406    -0.240609    -1.135774
H      0.690028    -1.358931     0.055970
H      1.757875     1.147825     0.288982
9
Iteration -1, Energy=-154.0926774311, |grad|=0.001641
C     -0.914243     0.072382     0.053409
C      0.511801    -0.414699    -0.138619
O      1.450036     0.385118     0.529402
H     -1.065645     1.048152    -0.419248
H     -1.626643    -0.626997    -0.390966
H     -1.141080     0.170785     1.116635
H      0.746744    -0.481430    -1.207544
H      0.624972    -1.416089     0.276716
H      1.414057     1.262778     0.180214
9
Iteration 0, Energy=-154.0926777891, |grad|=0.003150
C     -0.914293     0.072136     0.053346
C      0.511815    -0.414607    -0.138292
O      1.450042     0.384725     0.529335
H     -1.065468     1.048123    -0.418773
H     -1.626673    -0.626769    -0.391498
H     -1.141219     0.170618     1.116824
H      0.746816    -0.481599    -1.207528
H      0.624853    -1.416089     0.276875
H      1.414127     1.263462     0.179711
9
Iteration 1, Energy=-154.0926787700, |grad|=0.001641
C     -0.914298     0.072136     0.053408
C      0.511797    -0.414668    -0.138343
O      1.450069     0.385024     0.529240
H     -1.065436     1.048130    -0.418694
H     -1.626685    -0.626744    -0.391602
H     -1.141247     0.170569     1.116815
H      0.746816    -0.481629    -1.207477
H      0.624831    -1.416092     0.276909
H      1.414154     1.263275     0.179743
9
Iteration 2, Energy=-154.0926801522, |grad|=0.001163
C     -0.914347     0.071982     0.053558
C      0.511773    -0.414752    -0.138292
O      1.450140     0.385522     0.528952
H     -1.065219     1.048146    -0.418135
H     -1.626738    -0.626513    -0.392266
H     -1.141432     0.170288     1.116906
H      0.746852    -0.481841    -1.207304
H      0.624701    -1.416101     0.277139
H      1.414269     1.263269     0.179442
9
Iteration 3, Energy=-154.0926825012, |grad|=0.002404
C     -0.914481     0.071550     0.053898
C      0.511747    -0.414879    -0.138059
O      1.450290     0.386437     0.528281
H     -1.064605     1.048236    -0.416563
H     -1.626856    -0.625835    -0.394098
H     -1.141977     0.169441     1.117183
H      0.746943    -0.482458    -1.206864
H      0.624384    -1.416108     0.277815
H      1.414555     1.263616     0.178406
9
Iteration 4, Energy=-154.0926855973, |grad|=0.003052
C     -0.914652     0.071000     0.054338
C      0.511747    -0.415006    -0.137642
O      1.450430     0.387541     0.527370
H     -1.063610     1.048625    -0.414045
H     -1.626937    -0.624672    -0.396914
H     -1.142969     0.167766     1.117577
H      0.746997    -0.483532    -1.206211
H      0.624068    -1.416015     0.279032
H      1.414926     1.264292     0.176496
9
Iteration 0, Energy=-153.9140945778, |grad|=1.301334
C     -1.053455    -0.052196    -0.057501
C      0.387919    -0.228677    -0.270572
O      1.176978     0.237624     0.837673
H     -1.457013     0.749701    -0.755008
H     -1.493321    -0.762570    -0.078241
H     -1.171031     0.498413     0.911163
H      0.687406    -0.040609    -1.144570
H      0.490028    -1.326110     0.055970
H      1.932490     1.047122     0.288982
9
Iteration -1, Energy=-154.0926855973, |grad|=0.003052
C     -0.914652     0.071000     0.054338
C      0.511747    -0.415006    -0.137642
O      1.450430     0.387541     0.527370
H     -1.063610     1.048625    -0.414045
H     -1.626937    -0.624672    -0.396914
H     -1.142969     0.167766     1.117577
H      0.746997    -0.483532    -1.206211
H      0.624068    -1.416015     0.279032
H      1.414926     1.264292     0.176496
9
Iteration 0, Energy=-154.0926866073, |grad|=0.003149
C     -0.914605     0.071118     0.054151
C      0.511816    -0.414811    -0.137476
O      1.450283     0.386699     0.527655
H     -1.063582     1.048927    -0.414006
H     -1.626796    -0.624543    -0.396799
H     -1.143128     0.167364     1.117552
H      0.746898    -0.483654    -1.206313
H      0.624306    -1.415890     0.279217
H      1.414807     1.264791     0.176020
9
Iteration 1, Energy=-154.0926876530, |grad|=0.001615
C     -0.914587     0.071176     0.054159
C      0.511788    -0.414882    -0.137504
O      1.450285     0.386992     0.527592
H     -1.063572     1.049009    -0.413987
H     -1.626769    -0.624520    -0.396794
H     -1.143171     0.167250     1.117518
H      0.746870    -0.483684    -1.206308
H      0.624352    -1.415851     0.279258
H      1.414805     1.264510     0.176065
9
Iteration 2, Energy=-154.0926887548, |grad|=0.001257
C     -0.914525     0.071368     0.054107
C      0.511766    -0.414925    -0.137504
O      1.450214     0.387197     0.527603
H     -1.063529     1.049354    -0.413908
H     -1.626640    -0.624399    -0.396748
H     -1.143356     0.166771     1.117421
H      0.746751    -0.483821    -1.206330
H      0.624578    -1.415708     0.279464
H      1.414740     1.264162     0.175895
9
Iteration 3, Energy=-154.0926902700, |grad|=0.001702
C     -0.914395     0.071789     0.053980
C      0.511754    -0.414937    -0.137477
O      1.450032     0.387334     0.527711
H     -1.063402     1.050166    -0.413662
H     -1.626342    -0.624085    -0.396704
H     -1.143808     0.165618     1.117207
H      0.746475    -0.484168    -1.206366
H      0.625109    -1.415385     0.279988
H      1.414578     1.263666     0.175323
9
Iteration 4, Energy=-154.0926917988, |grad|=0.001554
C     -0.914316     0.072106     0.053904
C      0.511758    -0.414925    -0.137364
O      1.449876     0.387442     0.527732
H     -1.063134     1.051011    -0.413032
H     -1.626077    -0.623617    -0.397095
H     -1.144389     0.164254     1.117056
H      0.746216    -0.484646    -1.206297
H      0.625582    -1.415067     0.280694
H      1.414482     1.263441     0.174400
9
Iteration 0, Energy=-153.9382180592, |grad|=1.028046
C     -1.053455     0.145936    -0.057501
C      0.387919    -0.221539    -0.223362
O      1.176978     0.345073     0.837673
H     -1.457013     0.641044    -0.633223
H     -1.493321    -0.762570     0.085106
H     -1.171031     0.500161     0.911163
H      0.687406    -0.040609    -1.135774
H      0.690028    -1.326110     0.055970
H      1.932490     1.145630     0.288982
9
Iteration -1, Energy=-154.0926917988, |grad|=0.001554
C     -0.914316     0.072106     0.053904
C      0.511758    -0.414925    -0.137364
O      1.449876     0.387442     0.527732
H     -1.063134     1.051011    -0.413032
H     -1.626077    -0.623617    -0.397095
H     -1.144389     0.164254     1.117056
H      0.746216    -0.484646    -1.206297
H      0.625582    -1.415067     0.280694
H      1.414482     1.263441     0.174400
9
Iteration 0, Energy=-154.0926922594, |grad|=0.001336
C     -0.914345     0.072010     0.053918
C      0.511786    -0.414855    -0.137293
O      1.449879     0.387212     0.527735
H     -1.063067     1.050988    -0.412846
H     -1.626104    -0.623544    -0.397316
H     -1.144435     0.164205     1.117111
H      0.746241    -0.484700    -1.206252
H      0.625531    -1.415090     0.280767
H      1.414515     1.263774     0.174176
9
Iteration 1, Energy=-154.0926939014, |grad|=0.001029
C     -0.914458     0.071657     0.054067
C      0.511768    -0.414919    -0.137073
O      1.449995     0.387644     0.527332
H     -1.062752     1.050911    -0.411951
H     -1.626230    -0.623209    -0.398393
H     -1.144678     0.163908     1.117321
H      0.746346    -0.484957    -1.206003
H      0.625263    -1.415132     0.281081
H      1.414745     1.264099     0.173618
9
Iteration 2, Energy=-154.0926971962, |grad|=0.002835
C     -0.914768     0.070934     0.054995
C      0.511797    -0.415010    -0.136892
O      1.450243     0.389192     0.526180
H     -1.061449     1.051362    -0.408445
H     -1.626428    -0.621711    -0.402383
H     -1.146041     0.161642     1.117666
H      0.746413    -0.486303    -1.204849
H      0.624803    -1.415098     0.282844
H      1.415430     1.264992     0.170884
9
Iteration 3, Energy=-154.0927004855, |grad|=0.002400
C     -0.914969     0.070192     0.055001
C      0.511690    -0.415291    -0.135577
O      1.450289     0.390710     0.524905
H     -1.060120     1.052204    -0.404777
H     -1.626322    -0.619876    -0.406173
H     -1.147683     0.158830     1.118358
H      0.746453    -0.487814    -1.204278
H      0.624587    -1.414635     0.284659
H      1.416076     1.265680     0.167882
9
Iteration 4, Energy=-154.0927043633, |grad|=0.002336
C     -0.914990     0.070094     0.055192
C      0.511665    -0.415309    -0.135074
O      1.450152     0.391623     0.524324
H     -1.059186     1.053402    -0.402319
H     -1.626023    -0.618490    -0.408532
H     -1.149093     0.156107     1.118482
H      0.746229    -0.489077    -1.203804
H      0.624893    -1.414180     0.286274
H      1.416353     1.265829     0.165456
9
Iteration 0, Energy=-153.8782791048, |grad|=1.226116
C     -1.053455    -0.052196     0.142499
C      0.467992    -0.221539    -0.089050
O      1.176978     0.224784     0.837673
H     -1.457013     0.708477    -0.633223
H     -1.493321    -0.762570    -0.000037
H     -1.171031     0.496439     0.911163
H      0.687406    -0.240609    -1.135774
H      0.690028    -1.326110     0.055970
H      1.932490     1.147825     0.288982
9
Iteration -1, Energy=-154.0927043633, |grad|=0.002336
C     -0.914990     0.070094     0.055192
C      0.511665    -0.415309    -0.135074
O      1.450152     0.391623     0.524324
H     -1.059186     1.053402    -0.402319
H     -1.626023    -0.618490    -0.408532
H     -1.149093     0.156107     1.118482
H      0.746229    -0.489077    -1.203804
H      0.624893    -1.414180     0.286274
H      1.416353     1.265829     0.165456
9
Iteration 0, Energy=-154.0927063577, |grad|=0.002622
C     -0.914893     0.070585     0.055367
C      0.511765    -0.415107    -0.135516
O      1.449977     0.391145     0.524745
H     -1.059208     1.053959    -0.402479
H     -1.625828    -0.618459    -0.408174
H     -1.149303     0.155424     1.118091
H      0.745972    -0.489230    -1.203700
H      0.625360    -1.414055     0.286582
H      1.416159     1.265739     0.165084
9
Iteration 1, Energy=-154.0927081227, |grad|=0.001587
C     -0.914784     0.070959     0.055202
C      0.511744    -0.415139    -0.135506
O      1.449828     0.391207     0.524898
H     -1.059235     1.054474    -0.402574
H     -1.625600    -0.618360    -0.407823
H     -1.149524     0.154790     1.117907
H      0.745780    -0.489365    -1.203805
H      0.625762    -1.413818     0.286783
H      1.416028     1.265253     0.164915
9
Iteration 2, Energy=-154.0927089287, |grad|=0.001599
C     -0.914596     0.071391     0.054656
C      0.511674    -0.415116    -0.135067
O      1.449547     0.391001     0.525145
H     -1.059245     1.055399    -0.402585
H     -1.625185    -0.618077    -0.407341
H     -1.149962     0.153651     1.117773
H      0.745499    -0.489632    -1.204131
H      0.626425    -1.413373     0.287154
H      1.415843     1.264757     0.164394
9
Iteration 3, Energy=-154.0927093464, |grad|=0.000766
C     -0.914617     0.071435     0.054846
C      0.511685    -0.415150    -0.135255
O      1.449585     0.391289     0.525080
H     -1.059202     1.055437    -0.402464
H     -1.625222    -0.618068    -0.407514
H     -1.150010     0.153541     1.117691
H      0.745477    -0.489671    -1.203988
H      0.626418    -1.413399     0.287252
H      1.415886     1.264587     0.164352
9
Iteration 4, Energy=-154.0927094802, |grad|=0.000662
C     -0.914643     0.071392     0.054878
C      0.511693    -0.415156    -0.135247
O      1.449607     0.391316     0.525042
H     -1.059170     1.055400    -0.402360
H     -1.625251    -0.618044    -0.407651
H     -1.150027     0.153537     1.117716
H      0.745495    -0.489685    -1.203945
H      0.626372    -1.413416     0.287281
H      1.415925     1.264657     0.164285
9
Iteration 0, Energy=-153.9209258098, |grad|=1.357999
C     -1.053455     0.147804     0.142499
C      0.464835    -0.221539    -0.289050
O      1.176978     0.424784     0.837673
H     -1.457013     0.633975    -0.633223
H     -1.493321    -0.762570    -0.078241
H     -1.171031     0.496439     0.911163
H      0.687406    -0.040609    -1.135774
H      0.690028    -1.326110     0.055970
H      1.932490     0.947825     0.288982
9
Iteration -1, Energy=-154.0927094802, |grad|=0.000662
C     -0.914643     0.071392     0.054878
C      0.511693    -0.415156    -0.135247
O      1.449607     0.391316     0.525042
H     -1.059170     1.055400    -0.402360
H     -1.625251    -0.618044    -0.407651
H     -1.150027     0.153537     1.117716
H      0.745495    -0.489685    -1.203945
H      0.626372    -1.413416     0.287281
H      1.415925     1.264657     0.164285
9
Iteration 0, Energy=-154.0927095782, |grad|=0.001488
C     -0.914681     0.071293     0.054827
C      0.511704    -0.415116    -0.135094
O      1.449603     0.391159     0.525018
H     -1.059090     1.055413    -0.402088
H     -1.625255    -0.617922    -0.407929
H     -1.150131     0.153391     1.117799
H      0.745517    -0.489758    -1.203911
H      0.626336    -1.413397     0.287397
H      1.415998     1.264938     0.163980
9
Iteration 0, Energy=-153.9487401739, |grad|=1.045261
C     -1.053455    -0.052196     0.120989
C      0.387919    -0.421539    -0.089050
O      1.176978     0.424784     0.637673
H     -1.257013     0.833975    -0.633223
H     -1.493321    -0.762570    -0.078241
H     -1.171031     0.496439     0.911163
H      0.687406    -0.240609    -1.135774
H      0.690028    -1.326110     0.055970
H      1.932490     1.147825     0.288982
9
Iteration -1, Energy=-154.0927095782, |grad|=0.001488
C     -0.914681     0.071293     0.054827
C      0.511704    -0.415116    -0.135094
O      1.449603     0.391159     0.525018
H     -1.059090     1.055413    -0.402088
H     -1.625255    -0.617922    -0.407929
H     -1.150131     0.153391     1.117799
H      0.745517    -0.489758    -1.203911
H      0.626336    -1.413397     0.287397
H      1.415998     1.264938     0.163980
9
Iteration 0, Energy=-154.0927098461, |grad|=0.000515
C     -0.914681     0.071299     0.054881
C      0.511687    -0.415159    -0.135137
O      1.449621     0.391386     0.524952
H     -1.059076     1.055428    -0.402044
H     -1.625263    -0.617911    -0.407989
H     -1.150152     0.153351     1.117779
H      0.745513    -0.489773    -1.203876
H      0.626329    -1.413396     0.287423
H      1.416022     1.264775     0.164011
9
Iteration 0, Energy=-153.8017565091, |grad|=1.560956
C     -1.053455    -0.052196    -0.057501
C      0.587919    -0.221539    -0.089050
O      1.176978     0.224784     0.837673
H     -1.257013     0.633975    -0.633223
H     -1.493321    -0.762570    -0.078241
H     -1.171031     0.496439     1.111163
H      0.887406    -0.240609    -1.335774
H      0.690028    -1.326110     0.055970
H      1.932490     1.147825     0.288982
9
Iteration -1, Energy=-154.0927098461, |grad|=0.000515
C     -0.914681     0.071299     0.054881
C      0.511687    -0.415159    -0.135137
O      1.449621     0.391386     0.524952
H     -1.059076     1.055428    -0.402044
H     -1.625263    -0.617911    -0.407989
H     -1.150152     0.153351     1.117779
H      0.745513    -0.489773    -1.203876
H      0.626329    -1.413396     0.287423
H      1.416022     1.264775     0.164011
9
Iteration 0, Energy=-154.0927106571, |grad|=0.001752
C     -0.914768     0.071168     0.055304
C      0.511718    -0.415101    -0.135202
O      1.449634     0.391820     0.524712
H     -1.058723     1.055724    -0.400931
H     -1.625295    -0.617451    -0.409226
H     -1.150689     0.152415     1.117740
H      0.745481    -0.490178    -1.203437
H      0.626297    -1.413348     0.288093
H      1.416346     1.264949     0.162947
9
Iteration 1, Energy=-154.0927121426, |grad|=0.001810
C     -0.914895     0.070928     0.055504
C      0.511700    -0.415134    -0.134855
O      1.449624     0.392487     0.524287
H     -1.058207     1.056169    -0.399247
H     -1.625255    -0.616680    -0.410963
H     -1.151526     0.150994     1.117887
H      0.745459    -0.490782    -1.203010
H      0.626267    -1.413143     0.289016
H      1.416833     1.265159     0.161380
9
Iteration 2, Energy=-154.0927151611, |grad|=0.004115
C     -0.915192     0.070309     0.055906
C      0.511521    -0.414771    -0.133597
O      1.449309     0.394183     0.523328
H     -1.056404     1.058667    -0.393488
H     -1.624605    -0.613630    -0.416484
H     -1.154897     0.144918     1.118194
H      0.745102    -0.493253    -1.201733
H      0.626821    -1.412208     0.292653
H      1.418346     1.265783     0.155222
9
Iteration 3, Energy=-154.0927185688, |grad|=0.001030
C     -0.915589     0.069923     0.056405
C      0.511384    -0.415128    -0.131895
O      1.449010     0.397410     0.521661
H     -1.054240     1.061237    -0.386428
H     -1.624035    -0.610161    -0.423344
H     -1.158830     0.137893     1.118642
H      0.744755    -0.496079    -1.200178
H      0.627243    -1.410882     0.296762
H      1.420301     1.265786     0.148375
9
Iteration 4, Energy=-154.0927190671, |grad|=0.000570
C     -0.915548     0.070266     0.056283
C      0.511466    -0.415183    -0.131891
O      1.448872     0.397186     0.521834
H     -1.054322     1.061360    -0.386658
H     -1.623914    -0.610211    -0.422927
H     -1.158844     0.137735     1.118505
H      0.744653    -0.496077    -1.200271
H      0.627446    -1.410728     0.296703
H      1.420192     1.265653     0.148423
9
Iteration 0, Energy=-153.9532773042, |grad|=1.074400
C     -1.053455     0.117907     0.142499
C      0.387919    -0.421539    -0.289050
O      1.376978     0.424784     0.667716
H     -1.457013     0.633975    -0.638341
H     -1.693321    -0.762570     0.077009
H     -1.171031     0.532016     0.911163
H      0.687406    -0.040609    -1.135774
H      0.490028    -1.326110    -0.107180
H      1.932490     1.087019     0.424206
9
Iteration -1, Energy=-154.0927190671, |grad|=0.000570
C     -0.915548     0.070266     0.056283
C      0.511466    -0.415183    -0.131891
O      1.448872     0.397186     0.521834
H     -1.054322     1.061360    -0.386658
H     -1.623914    -0.610211    -0.422927
H     -1.158844     0.137735     1.118505
H      0.744653    -0.496077    -1.200271
H      0.627446    -1.410728     0.296703
H      1.420192     1.265653     0.148423
9
Iteration 0, Energy=-154.0927191138, |grad|=0.000429
C     -0.915529     0.070271     0.056284
C      0.511454    -0.415169    -0.131911
O      1.448865     0.397209     0.521842
H     -1.054331     1.061396    -0.386676
H     -1.623903    -0.610210    -0.422896
H     -1.158854     0.137707     1.118483
H      0.744641    -0.496081    -1.200266
H      0.627469    -1.410724     0.296711
H      1.420187     1.265601     0.148428
9
Iteration 0, Energy=-153.8319791867, |grad|=1.608248
C     -1.053455     0.147804     0.142499
C      0.587919    -0.221539    -0.289050
O      1.176978     0.224784     0.837673
H     -1.457013     0.833975    -0.833223
H     -1.493321    -0.962570    -0.078241
H     -1.171031     0.496439     0.911163
H      0.687406    -0.040609    -1.135774
H      0.490028    -1.526110    -0.144030
H      1.932490     0.947825     0.288982
