9
Iteration -1, Energy=-154.0837996503, |grad|=0.044117
C     -0.977020     0.054531     0.039344
C      0.487693    -0.332548    -0.192952
O      1.302254     0.336299     0.743792
H     -1.353582     0.729531    -0.729129
H     -1.591671    -0.850511     0.025441
H     -1.069217     0.581118     0.999619
H      0.788253    -0.138478    -1.230198
H      0.594696    -1.412625    -0.042175
H      1.818594     1.032682     0.386258
9
Iteration 0, Energy=-154.0843833249, |grad|=0.059413
C     -0.977280     0.053879     0.035312
C      0.484312    -0.325026    -0.187773
O      1.305233     0.320355     0.751886
H     -1.354690     0.731318    -0.731808
H     -1.597106    -0.844075     0.028915
H     -1.069673     0.569254     0.994917
H      0.790027    -0.136048    -1.225589
H      0.600639    -1.406722    -0.038040
H      1.818537     1.037066     0.372179
9
Iteration 1, Energy=-154.0849708820, |grad|=0.035094
C     -0.978177     0.054365     0.032267
C      0.483032    -0.324225    -0.185418
O      1.313796     0.319380     0.752837
H     -1.355398     0.732475    -0.733440
H     -1.600947    -0.840538     0.030813
H     -1.070298     0.562238     0.992956
H      0.791269    -0.133974    -1.221992
H      0.603824    -1.402234    -0.035695
H      1.812900     1.032512     0.367673
9
Iteration 2, Energy=-154.0855525641, |grad|=0.015882
C     -0.980572     0.055962     0.025149
C      0.485382    -0.322798    -0.179253
O      1.331056     0.312521     0.753421
H     -1.357325     0.736354    -0.738314
H     -1.612045    -0.832437     0.034509
H     -1.072982     0.545639     0.990668
H      0.794820    -0.127776    -1.211446
H      0.611494    -1.392164    -0.028851
H      1.800172     1.024698     0.354117
9
Iteration 3, Energy=-154.0857041185, |grad|=0.012918
C     -0.979866     0.055951     0.024226
C      0.487718    -0.323802    -0.177507
O      1.336536     0.309057     0.751367
H     -1.357812     0.739262    -0.740843
H     -1.617745    -0.830150     0.033355
H     -1.075975     0.541528     0.993742
H      0.798074    -0.123818    -1.206927
H      0.613990    -1.392890    -0.024920
H      1.795081     1.024862     0.347508
9
Iteration 4, Energy=-154.0858879114, |grad|=0.019755
C     -0.984349     0.059975     0.025899
C      0.492191    -0.332712    -0.172545
O      1.350274     0.301923     0.745186
H     -1.353411     0.743306    -0.740109
H     -1.629306    -0.822421     0.024813
H     -1.085134     0.532524     1.000771
H      0.809041    -0.114233    -1.198539
H      0.618760    -1.399964    -0.015309
H      1.781934     1.031603     0.329834
9
Iteration 0, Energy=-154.0038802321, |grad|=0.866488
C     -1.030798     0.017194    -0.033921
C      0.543264    -0.297346    -0.221354
O      1.185952     0.277830     0.639177
H     -1.279173     0.667624    -0.670826
H     -1.633544    -0.897556    -0.016649
H     -1.076285     0.580001     1.050350
H      0.693213    -0.156023    -1.332955
H      0.684758    -1.347364    -0.026393
H      1.836310     1.033201     0.462806
9
Iteration -1, Energy=-154.0858879114, |grad|=0.019755
C     -0.984349     0.059975     0.025899
C      0.492191    -0.332712    -0.172545
O      1.350274     0.301923     0.745186
H     -1.353411     0.743306    -0.740109
H     -1.629306    -0.822421     0.024813
H     -1.085134     0.532524     1.000771
H      0.809041    -0.114233    -1.198539
H      0.618760    -1.399964    -0.015309
H      1.781934     1.031603     0.329834
9
Iteration 0, Energy=-154.0859565451, |grad|=0.009760
C     -0.981954     0.057697     0.026682
C      0.490914    -0.330743    -0.173223
O      1.350611     0.302731     0.744626
H     -1.352888     0.744321    -0.739948
H     -1.629267    -0.822193     0.023716
H     -1.085654     0.533271     1.001545
H      0.808783    -0.115457    -1.198207
H      0.618427    -1.401522    -0.015309
H      1.781028     1.031895     0.330117
9
Iteration 1, Energy=-154.0859975546, |grad|=0.009758
C     -0.979824     0.056415     0.027604
C      0.490388    -0.330369    -0.173284
O      1.350379     0.303304     0.743840
H     -1.351326     0.745188    -0.738538
H     -1.629111    -0.822165     0.021705
H     -1.086398     0.534042     1.002367
H      0.808331    -0.117405    -1.198184
H      0.617654    -1.402515    -0.015595
H      1.779906     1.033506     0.330084
9
Iteration 2, Energy=-154.0860846868, |grad|=0.014129
C     -0.976153     0.054511     0.030372
C      0.490270    -0.331176    -0.173151
O      1.350274     0.305554     0.741346
H     -1.345762     0.747466    -0.733449
H     -1.628222    -0.821957     0.015372
H     -1.088386     0.535496     1.004344
H      0.806840    -0.123462    -1.198516
H      0.615292    -1.404803    -0.016344
H      1.775846     1.038371     0.330025
9
Iteration 3, Energy=-154.0861938558, |grad|=0.019303
C     -0.972940     0.053201     0.034639
C      0.490891    -0.333048    -0.171924
O      1.350322     0.306741     0.738365
H     -1.335240     0.752593    -0.724820
H     -1.626393    -0.821279     0.004225
H     -1.091206     0.535669     1.007862
H      0.804117    -0.134328    -1.200232
H      0.612077    -1.408864    -0.016150
H      1.768372     1.049314     0.328034
9
Iteration 4, Energy=-154.0863281009, |grad|=0.019805
C     -0.969211     0.053445     0.040207
C      0.491693    -0.339449    -0.169597
O      1.355035     0.312665     0.731446
H     -1.317962     0.762525    -0.711517
H     -1.623841    -0.820179    -0.013760
H     -1.095249     0.533216     1.014150
H      0.799524    -0.151887    -1.203281
H      0.607655    -1.413863    -0.014183
H      1.752356     1.063527     0.326535
9
Iteration 0, Energy=-154.0700704055, |grad|=0.256955
C     -0.983302     0.069239     0.030905
C      0.562854    -0.329484    -0.186316
O      1.364231     0.307988     0.731795
H     -1.432359     0.703627    -0.809266
H     -1.689019    -0.813305    -0.046614
H     -1.083395     0.524011     1.019905
H      0.884244    -0.077374    -1.273304
H      0.678663    -1.333395    -0.012462
H      1.746510     1.087051     0.296183
9
Iteration -1, Energy=-154.0863281009, |grad|=0.019805
C     -0.969211     0.053445     0.040207
C      0.491693    -0.339449    -0.169597
O      1.355035     0.312665     0.731446
H     -1.317962     0.762525    -0.711517
H     -1.623841    -0.820179    -0.013760
H     -1.095249     0.533216     1.014150
H      0.799524    -0.151887    -1.203281
H      0.607655    -1.413863    -0.014183
H      1.752356     1.063527     0.326535
9
Iteration 0, Energy=-154.0864181960, |grad|=0.026360
C     -0.973739     0.056865     0.038188
C      0.494543    -0.340611    -0.168995
O      1.355158     0.306477     0.732479
H     -1.317796     0.765164    -0.713003
H     -1.624087    -0.818925    -0.013094
H     -1.093940     0.527729     1.014485
H      0.798953    -0.151692    -1.203085
H      0.609709    -1.412197    -0.010183
H      1.751199     1.067189     0.323207
9
Iteration 1, Energy=-154.0865155175, |grad|=0.015555
C     -0.973881     0.057293     0.037266
C      0.493912    -0.340773    -0.168957
O      1.357492     0.307167     0.731519
H     -1.317993     0.766916    -0.714035
H     -1.624502    -0.818362    -0.012978
H     -1.093511     0.525440     1.015058
H      0.798879    -0.151702    -1.203036
H      0.610589    -1.411990    -0.008274
H      1.749015     1.066010     0.323436
9
Iteration 2, Energy=-154.0866646141, |grad|=0.011495
C     -0.974536     0.059362     0.033651
C      0.492651    -0.340910    -0.168521
O      1.364038     0.305325     0.729015
H     -1.318572     0.773902    -0.717738
H     -1.626277    -0.815959    -0.012843
H     -1.091780     0.515979     1.017321
H      0.798483    -0.152027    -1.202738
H      0.614096    -1.411021    -0.000242
H      1.741897     1.065348     0.322096
9
Iteration 3, Energy=-154.0867353348, |grad|=0.010806
C     -0.973285     0.060468     0.031431
C      0.492074    -0.341193    -0.168263
O      1.367653     0.302363     0.726813
H     -1.318528     0.779122    -0.719068
H     -1.628001    -0.813683    -0.014200
H     -1.090764     0.508984     1.019219
H      0.798318    -0.153245    -1.202371
H      0.615989    -1.410325     0.006137
H      1.736543     1.067510     0.320302
9
Iteration 4, Energy=-154.0868700267, |grad|=0.014273
C     -0.972566     0.063465     0.028121
C      0.494287    -0.344635    -0.168175
O      1.375511     0.297910     0.719619
H     -1.315762     0.789286    -0.716611
H     -1.631209    -0.806684    -0.021327
H     -1.088682     0.493734     1.023014
H      0.798302    -0.158928    -1.201944
H      0.617708    -1.408978     0.020301
H      1.722409     1.074830     0.317002
9
Iteration 0, Energy=-154.0193211686, |grad|=0.556166
C     -0.856174    -0.038695     0.098191
C      0.497148    -0.338432    -0.134573
O      1.249016     0.322800     0.708485
H     -1.283229     0.803975    -0.764816
H     -1.530819    -0.927591    -0.032478
H     -1.059129     0.514945     1.110236
H      0.707952    -0.229778    -1.142056
H      0.559008    -1.347001    -0.067636
H      1.756035     0.947888     0.425274
9
Iteration -1, Energy=-154.0868700267, |grad|=0.014273
C     -0.972566     0.063465     0.028121
C      0.494287    -0.344635    -0.168175
O      1.375511     0.297910     0.719619
H     -1.315762     0.789286    -0.716611
H     -1.631209    -0.806684    -0.021327
H     -1.088682     0.493734     1.023014
H      0.798302    -0.158928    -1.201944
H      0.617708    -1.408978     0.020301
H      1.722409     1.074830     0.317002
9
Iteration 0, Energy=-154.0869499029, |grad|=0.023998
C     -0.968993     0.061177     0.031068
C      0.493342    -0.343214    -0.168027
O      1.373605     0.296820     0.719891
H     -1.313116     0.789536    -0.711749
H     -1.631514    -0.806235    -0.026696
H     -1.089309     0.495670     1.023827
H      0.799216    -0.163435    -1.203842
H      0.615076    -1.412188     0.019855
H      1.721693     1.081869     0.315673
9
Iteration 1, Energy=-154.0870470516, |grad|=0.014857
C     -0.968112     0.060579     0.032380
C      0.493525    -0.344457    -0.168165
O      1.374200     0.299612     0.718543
H     -1.311215     0.789670    -0.708464
H     -1.631466    -0.805879    -0.030021
H     -1.089599     0.496555     1.024486
H      0.799602    -0.166283    -1.204701
H      0.613318    -1.413178     0.019466
H      1.719746     1.083381     0.316477
9
Iteration 2, Energy=-154.0871875099, |grad|=0.010650
C     -0.966246     0.059010     0.036431
C      0.495713    -0.348312    -0.168611
O      1.374861     0.305733     0.714565
H     -1.304411     0.791170    -0.697606
H     -1.631097    -0.804536    -0.041338
H     -1.090355     0.498555     1.027139
H      0.800426    -0.176559    -1.207021
H      0.607806    -1.416164     0.018845
H      1.713302     1.091103     0.317597
9
Iteration 3, Energy=-154.0872659718, |grad|=0.012421
C     -0.965389     0.058629     0.037743
C      0.496659    -0.349725    -0.168514
O      1.375982     0.307265     0.711926
H     -1.300358     0.795071    -0.693142
H     -1.630832    -0.803715    -0.047396
H     -1.090306     0.497026     1.029523
H      0.800216    -0.183171    -1.207667
H      0.606159    -1.417517     0.020266
H      1.707869     1.096137     0.317261
9
Iteration 4, Energy=-154.0879345582, |grad|=0.032345
C     -0.954722     0.062880     0.046477
C      0.500140    -0.367773    -0.163690
O      1.393081     0.317854     0.683295
H     -1.255817     0.842707    -0.647501
H     -1.628484    -0.793125    -0.110495
H     -1.088388     0.468120     1.054424
H      0.796905    -0.253316    -1.216482
H      0.594281    -1.429024     0.043693
H      1.643003     1.151677     0.310279
9
Iteration 0, Energy=-154.0249508757, |grad|=0.537161
C     -0.967983     0.064917     0.124253
C      0.491292    -0.255202    -0.190500
O      1.275928     0.263068     0.638664
H     -1.300009     0.827963    -0.752402
H     -1.624703    -0.924069     0.004043
H     -1.068842     0.615699     1.102157
H      0.720828    -0.237687    -1.157734
H      0.681247    -1.419031    -0.112383
H      1.737232     0.986855     0.373889
9
Iteration -1, Energy=-154.0879345582, |grad|=0.032345
C     -0.954722     0.062880     0.046477
C      0.500140    -0.367773    -0.163690
O      1.393081     0.317854     0.683295
H     -1.255817     0.842707    -0.647501
H     -1.628484    -0.793125    -0.110495
H     -1.088388     0.468120     1.054424
H      0.796905    -0.253316    -1.216482
H      0.594281    -1.429024     0.043693
H      1.643003     1.151677     0.310279
9
Iteration 0, Energy=-154.0882287152, |grad|=0.026992
C     -0.955042     0.058919     0.044642
C      0.499888    -0.360733    -0.166618
O      1.394771     0.314746     0.681468
H     -1.256325     0.846982    -0.650912
H     -1.626830    -0.787294    -0.108110
H     -1.088065     0.461721     1.053907
H      0.794944    -0.252255    -1.213839
H      0.597679    -1.430832     0.050250
H      1.638980     1.148746     0.309212
9
Iteration 1, Energy=-154.0884518122, |grad|=0.021363
C     -0.954425     0.061247     0.041988
C      0.499606    -0.361499    -0.166045
O      1.396366     0.312239     0.679577
H     -1.256471     0.849500    -0.652612
H     -1.626912    -0.784205    -0.106511
H     -1.087699     0.455006     1.053214
H      0.793591    -0.250600    -1.213385
H      0.600617    -1.428630     0.055618
H      1.635327     1.146943     0.308156
9
Iteration 2, Energy=-154.0886885192, |grad|=0.037733
C     -0.949261     0.069988     0.034862
C      0.499791    -0.367100    -0.167530
O      1.405068     0.299324     0.676932
H     -1.255072     0.863129    -0.658373
H     -1.632055    -0.775026    -0.106852
H     -1.086270     0.429078     1.055204
H      0.788476    -0.247342    -1.214059
H      0.609943    -1.421958     0.079466
H      1.619380     1.149906     0.300350
9
Iteration 3, Energy=-154.0888259896, |grad|=0.025512
C     -0.950662     0.071295     0.032129
C      0.500717    -0.369413    -0.164719
O      1.409283     0.305612     0.670332
H     -1.253285     0.865990    -0.657554
H     -1.632507    -0.771148    -0.108567
H     -1.085546     0.422696     1.056323
H      0.787878    -0.247726    -1.215650
H      0.611295    -1.421020     0.085080
H      1.612826     1.143714     0.302626
9
Iteration 4, Energy=-154.0889089519, |grad|=0.010397
C     -0.951083     0.069786     0.034125
C      0.501060    -0.368089    -0.164991
O      1.407199     0.304803     0.671862
H     -1.252947     0.864174    -0.656014
H     -1.632240    -0.772877    -0.109783
H     -1.085762     0.426912     1.056371
H      0.788738    -0.249177    -1.215591
H      0.609459    -1.422589     0.081614
H      1.615575     1.147057     0.302407
9
Iteration 0, Energy=-154.0289018043, |grad|=0.530586
C     -0.903890     0.124372    -0.021752
C      0.398197    -0.368686    -0.136095
O      1.267296     0.326234     0.659723
H     -1.264688     0.788413    -0.691804
H     -1.585766    -0.792273    -0.044775
H     -0.976414     0.693259     1.071344
H      0.852919    -0.126596    -1.177879
H      0.518060    -1.522000    -0.139783
H      1.849289     0.957301     0.371010
9
Iteration -1, Energy=-154.0889089519, |grad|=0.010397
C     -0.951083     0.069786     0.034125
C      0.501060    -0.368089    -0.164991
O      1.407199     0.304803     0.671862
H     -1.252947     0.864174    -0.656014
H     -1.632240    -0.772877    -0.109783
H     -1.085762     0.426912     1.056371
H      0.788738    -0.249177    -1.215591
H      0.609459    -1.422589     0.081614
H      1.615575     1.147057     0.302407
9
Iteration 0, Energy=-154.0889789616, |grad|=0.022953
C     -0.951175     0.067619     0.036628
C      0.501645    -0.366182    -0.164979
O      1.406460     0.303759     0.668775
H     -1.248757     0.865263    -0.650395
H     -1.632442    -0.770739    -0.116483
H     -1.085485     0.426264     1.057394
H      0.789216    -0.255176    -1.215097
H      0.607631    -1.425150     0.082848
H      1.612908     1.154341     0.301308
9
Iteration 1, Energy=-154.0890799686, |grad|=0.016298
C     -0.950622     0.066903     0.037904
C      0.501357    -0.367366    -0.164720
O      1.407400     0.306531     0.665806
H     -1.245694     0.866364    -0.646220
H     -1.632887    -0.769578    -0.121505
H     -1.085383     0.425494     1.058562
H      0.789533    -0.259518    -1.215138
H      0.606237    -1.425909     0.083631
H      1.610058     1.157079     0.301681
9
Iteration 2, Energy=-154.0893279354, |grad|=0.015040
C     -0.946837     0.064367     0.042812
C      0.500718    -0.374148    -0.163542
O      1.411823     0.316111     0.653885
H     -1.231153     0.874117    -0.627317
H     -1.635413    -0.764325    -0.145274
H     -1.085197     0.419944     1.065353
H      0.790083    -0.280588    -1.215930
H      0.600491    -1.428371     0.088836
H      1.595486     1.172894     0.301179
9
Iteration 3, Energy=-154.0895194540, |grad|=0.020307
C     -0.944589     0.062727     0.044954
C      0.502229    -0.376885    -0.163430
O      1.416292     0.321893     0.645716
H     -1.220267     0.884667    -0.615524
H     -1.636463    -0.758938    -0.161663
H     -1.085310     0.411287     1.071139
H      0.788550    -0.296744    -1.217055
H      0.598500    -1.430909     0.096498
H      1.581058     1.182902     0.299365
9
Iteration 4, Energy=-154.0902686462, |grad|=0.035122
C     -0.930943     0.062666     0.052642
C      0.510630    -0.396736    -0.158150
O      1.440755     0.346467     0.600617
H     -1.159279     0.946921    -0.550861
H     -1.641367    -0.727735    -0.250054
H     -1.086309     0.353872     1.101761
H      0.778113    -0.385076    -1.225996
H      0.592104    -1.440291     0.144449
H      1.496295     1.239912     0.285592
9
Iteration 0, Energy=-153.9768691191, |grad|=0.989398
C     -0.938228     0.136045    -0.045223
C      0.585532    -0.240049    -0.131442
O      1.185960     0.387589     0.676483
H     -1.387949     0.729503    -0.674240
H     -1.498593    -0.866987    -0.011390
H     -0.998725     0.681968     1.101437
H      0.749904    -0.229436    -1.234018
H      0.522333    -1.460918    -0.041656
H      1.864298     1.095187     0.451005
9
Iteration -1, Energy=-154.0902686462, |grad|=0.035122
C     -0.930943     0.062666     0.052642
C      0.510630    -0.396736    -0.158150
O      1.440755     0.346467     0.600617
H     -1.159279     0.946921    -0.550861
H     -1.641367    -0.727735    -0.250054
H     -1.086309     0.353872     1.101761
H      0.778113    -0.385076    -1.225996
H      0.592104    -1.440291     0.144449
H      1.496295     1.239912     0.285592
9
Iteration 0, Energy=-154.0908939526, |grad|=0.027020
C     -0.933232     0.067181     0.047306
C      0.510518    -0.391851    -0.160443
O      1.436716     0.339868     0.595994
H     -1.158590     0.947621    -0.551236
H     -1.633798    -0.717626    -0.242212
H     -1.087198     0.341715     1.094880
H      0.774675    -0.381509    -1.221426
H      0.599723    -1.437524     0.153597
H      1.491186     1.232126     0.283540
9
Iteration 1, Energy=-154.0912333381, |grad|=0.015511
C     -0.926080     0.073231     0.043692
C      0.504732    -0.395801    -0.158627
O      1.435607     0.335098     0.593327
H     -1.159289     0.953370    -0.554476
H     -1.630182    -0.710925    -0.235930
H     -1.088985     0.327343     1.089327
H      0.771489    -0.376780    -1.221184
H      0.608039    -1.429416     0.163406
H      1.484668     1.223881     0.280465
9
Iteration 2, Energy=-154.0913111146, |grad|=0.016609
C     -0.924448     0.073822     0.041918
C      0.506836    -0.395474    -0.160338
O      1.437163     0.330947     0.595295
H     -1.158840     0.959375    -0.557004
H     -1.631017    -0.709660    -0.235817
H     -1.090097     0.321346     1.091473
H      0.769013    -0.375679    -1.222102
H      0.610782    -1.428523     0.169787
H      1.480608     1.223847     0.276789
9
Iteration 3, Energy=-154.0913631954, |grad|=0.007699
C     -0.925039     0.074586     0.041549
C      0.508577    -0.396338    -0.160122
O      1.438637     0.333040     0.595176
H     -1.157998     0.961579    -0.557243
H     -1.632048    -0.709726    -0.237197
H     -1.090348     0.319246     1.093022
H      0.768261    -0.375770    -1.223462
H      0.611109    -1.428654     0.172122
H      1.478849     1.222036     0.276156
9
Iteration 4, Energy=-154.0913906250, |grad|=0.007264
C     -0.925764     0.075410     0.041692
C      0.509873    -0.397021    -0.159112
O      1.439982     0.334168     0.594717
H     -1.156555     0.963415    -0.556566
H     -1.633097    -0.709472    -0.239492
H     -1.090497     0.316915     1.094215
H      0.767779    -0.376344    -1.224978
H      0.611281    -1.428923     0.174544
H      1.476999     1.221852     0.274979
9
Iteration 0, Energy=-154.0546337244, |grad|=0.326044
C     -0.918592     0.012112     0.080963
C      0.542093    -0.243362    -0.098533
O      1.325784     0.413715     0.779753
H     -1.299634     0.813320    -0.671319
H     -1.516623    -0.923905    -0.007071
H     -1.071989     0.583766     1.109183
H      0.841470    -0.146993    -1.167678
H      0.526425    -1.435871    -0.083115
H      1.797118     1.133413     0.476866
9
Iteration -1, Energy=-154.0913906250, |grad|=0.007264
C     -0.925764     0.075410     0.041692
C      0.509873    -0.397021    -0.159112
O      1.439982     0.334168     0.594717
H     -1.156555     0.963415    -0.556566
H     -1.633097    -0.709472    -0.239492
H     -1.090497     0.316915     1.094215
H      0.767779    -0.376344    -1.224978
H      0.611281    -1.428923     0.174544
H      1.476999     1.221852     0.274979
9
Iteration 0, Energy=-154.0914223721, |grad|=0.016537
C     -0.925512     0.074006     0.043306
C      0.507270    -0.396375    -0.158457
O      1.440202     0.333119     0.592075
H     -1.153180     0.963134    -0.551954
H     -1.632666    -0.706509    -0.244295
H     -1.090637     0.314645     1.093524
H      0.768164    -0.379115    -1.223442
H      0.610880    -1.429494     0.176399
H      1.475479     1.226588     0.272845
9
Iteration 1, Energy=-154.0914682519, |grad|=0.010123
C     -0.925383     0.073590     0.043722
C      0.506650    -0.397213    -0.158079
O      1.440525     0.335323     0.589904
H     -1.151270     0.963383    -0.549392
H     -1.632689    -0.705111    -0.247164
H     -1.090890     0.313242     1.093838
H      0.768125    -0.380740    -1.222661
H      0.610502    -1.429406     0.177405
H      1.474429     1.226931     0.272427
9
Iteration 2, Energy=-154.0915478200, |grad|=0.012005
C     -0.924740     0.072058     0.045060
C      0.505831    -0.399422    -0.156831
O      1.441327     0.340472     0.583282
H     -1.144579     0.965303    -0.540778
H     -1.633159    -0.700525    -0.257405
H     -1.092024     0.307969     1.095642
H      0.767594    -0.386736    -1.220223
H      0.609334    -1.429281     0.181429
H      1.470416     1.230162     0.269824
9
Iteration 3, Energy=-154.0916355192, |grad|=0.016723
C     -0.923616     0.070309     0.046588
C      0.506387    -0.401682    -0.155424
O      1.442517     0.345581     0.576380
H     -1.136330     0.969761    -0.530830
H     -1.634284    -0.695349    -0.270260
H     -1.093903     0.300493     1.098874
H      0.766289    -0.394699    -1.218190
H      0.608294    -1.429363     0.187317
H      1.464648     1.234948     0.265544
9
Iteration 4, Energy=-154.0918804800, |grad|=0.023599
C     -0.920526     0.066664     0.050879
C      0.508543    -0.407814    -0.150843
O      1.447672     0.360003     0.558048
H     -1.110604     0.987488    -0.500843
H     -1.637172    -0.678949    -0.309264
H     -1.100735     0.273690     1.108883
H      0.761173    -0.420669    -1.215171
H      0.607219    -1.430027     0.208118
H      1.444430     1.249615     0.250191
9
Iteration 0, Energy=-153.9995841646, |grad|=0.635203
C     -0.881517     0.144698     0.125442
C      0.414786    -0.340635    -0.101679
O      1.185459     0.390748     0.783099
H     -1.448637     0.684735    -0.755539
H     -1.679893    -0.938579    -0.053510
H     -1.164803     0.605918     0.933327
H      0.690553    -0.201354    -1.167818
H      0.675742    -1.332087    -0.082658
H      1.779853     1.062170     0.347686
9
Iteration -1, Energy=-154.0918804800, |grad|=0.023599
C     -0.920526     0.066664     0.050879
C      0.508543    -0.407814    -0.150843
O      1.447672     0.360003     0.558048
H     -1.110604     0.987488    -0.500843
H     -1.637172    -0.678949    -0.309264
H     -1.100735     0.273690     1.108883
H      0.761173    -0.420669    -1.215171
H      0.607219    -1.430027     0.208118
H      1.444430     1.249615     0.250191
9
Iteration 0, Energy=-154.0919655475, |grad|=0.018392
C     -0.920668     0.067471     0.050497
C      0.509466    -0.405858    -0.151157
O      1.447449     0.354767     0.560641
H     -1.110778     0.989854    -0.501539
H     -1.636345    -0.678328    -0.308027
H     -1.101478     0.271399     1.108441
H      0.760368    -0.421364    -1.216509
H      0.608922    -1.430272     0.209891
H      1.443064     1.252332     0.247761
9
Iteration 1, Energy=-154.0920162391, |grad|=0.012822
C     -0.920519     0.068365     0.050103
C      0.509630    -0.406128    -0.151242
O      1.447571     0.355560     0.561088
H     -1.110898     0.991192    -0.501804
H     -1.635899    -0.678034    -0.307374
H     -1.101975     0.269956     1.108252
H      0.759909    -0.421716    -1.217278
H      0.609825    -1.429933     0.210717
H      1.442357     1.250737     0.247537
9
Iteration 2, Energy=-154.0921305251, |grad|=0.006788
C     -0.919334     0.073102     0.047828
C      0.510904    -0.406817    -0.151620
O      1.447490     0.356195     0.563792
H     -1.111442     0.998607    -0.502908
H     -1.633454    -0.676234    -0.304077
H     -1.104811     0.261859     1.107288
H      0.757374    -0.423821    -1.220910
H      0.614910    -1.427953     0.215495
H      1.438363     1.245061     0.245113
9
Iteration 3, Energy=-154.0921535091, |grad|=0.004914
C     -0.918131     0.074295     0.047086
C      0.511057    -0.407189    -0.151788
O      1.446644     0.355414     0.563276
H     -1.111176     1.001420    -0.502027
H     -1.632466    -0.674906    -0.304091
H     -1.106052     0.258399     1.106929
H      0.756616    -0.425086    -1.220615
H      0.616687    -1.426657     0.217602
H      1.436820     1.244310     0.243629
9
Iteration 4, Energy=-154.0921869467, |grad|=0.005945
C     -0.917679     0.075444     0.046422
C      0.510520    -0.406914    -0.151401
O      1.446229     0.355150     0.561198
H     -1.109340     1.006018    -0.498128
H     -1.630605    -0.671454    -0.306701
H     -1.108044     0.251698     1.106258
H      0.755917    -0.428574    -1.220121
H      0.619193    -1.425472     0.222232
H      1.433809     1.244106     0.240242
9
Iteration 0, Energy=-154.0398904348, |grad|=0.522232
C     -0.875080     0.047522     0.068256
C      0.519793    -0.406076    -0.148716
O      1.359037     0.296571     0.689469
H     -1.304288     0.650877    -0.740358
H     -1.512925    -0.946642    -0.009404
H     -1.167732     0.513995     1.109898
H      0.768480    -0.092009    -1.166144
H      0.509530    -1.358489    -0.143503
H      1.914224     1.001891     0.364812
9
Iteration -1, Energy=-154.0921869467, |grad|=0.005945
C     -0.917679     0.075444     0.046422
C      0.510520    -0.406914    -0.151401
O      1.446229     0.355150     0.561198
H     -1.109340     1.006018    -0.498128
H     -1.630605    -0.671454    -0.306701
H     -1.108044     0.251698     1.106258
H      0.755917    -0.428574    -1.220121
H      0.619193    -1.425472     0.222232
H      1.433809     1.244106     0.240242
9
Iteration 0, Energy=-154.0922042526, |grad|=0.008397
C     -0.917227     0.075589     0.047145
C      0.510715    -0.408954    -0.151079
O      1.447089     0.357086     0.560208
H     -1.108316     1.005871    -0.496100
H     -1.631910    -0.671735    -0.309939
H     -1.108223     0.251453     1.107308
H      0.756138    -0.429584    -1.219645
H      0.617968    -1.424999     0.222409
H      1.433767     1.245274     0.239692
9
Iteration 1, Energy=-154.0922236261, |grad|=0.006312
C     -0.917371     0.074554     0.047635
C      0.510987    -0.408882    -0.150871
O      1.447635     0.357661     0.559337
H     -1.107262     1.006084    -0.494296
H     -1.632527    -0.671258    -0.312635
H     -1.108401     0.251059     1.108187
H      0.756312    -0.430721    -1.219209
H      0.617057    -1.425415     0.223057
H      1.433570     1.246919     0.238795
9
Iteration 2, Energy=-154.0922594988, |grad|=0.007183
C     -0.918537     0.070910     0.049219
C      0.511544    -0.408146    -0.149548
O      1.449357     0.361762     0.554956
H     -1.102910     1.007146    -0.486927
H     -1.633760    -0.668245    -0.322453
H     -1.109287     0.248258     1.110710
H      0.756871    -0.435474    -1.217877
H      0.614250    -1.427039     0.226184
H      1.432472     1.250828     0.235736
9
Iteration 3, Energy=-154.0922843093, |grad|=0.009941
C     -0.918420     0.070867     0.050107
C      0.511334    -0.408869    -0.148564
O      1.449781     0.362241     0.552617
H     -1.099780     1.008457    -0.481447
H     -1.633775    -0.665557    -0.328472
H     -1.110550     0.244063     1.111288
H      0.756734    -0.439126    -1.216965
H      0.613734    -1.426605     0.229126
H      1.430943     1.254528     0.232311
9
Iteration 4, Energy=-154.0923184009, |grad|=0.010952
C     -0.918005     0.070831     0.050565
C      0.510838    -0.409409    -0.147964
O      1.449927     0.363773     0.550176
H     -1.096866     1.010653    -0.476502
H     -1.633119    -0.662413    -0.333476
H     -1.112135     0.239083     1.111605
H      0.756248    -0.442765    -1.216093
H      0.613967    -1.425986     0.232469
H      1.429144     1.256233     0.229220
9
Iteration 0, Energy=-154.0352872521, |grad|=0.493817
C     -0.853625     0.002823    -0.004879
C      0.575809    -0.364086    -0.246610
O      1.372705     0.263002     0.763266
H     -1.339275     0.702878    -0.657900
H     -1.506354    -0.795383    -0.053503
H     -1.163628     0.692950     0.920032
H      0.736607    -0.225129    -1.184195
H      0.687819    -1.355425    -0.079590
H      1.801676     0.990087     0.305814
9
Iteration -1, Energy=-154.0923184009, |grad|=0.010952
C     -0.918005     0.070831     0.050565
C      0.510838    -0.409409    -0.147964
O      1.449927     0.363773     0.550176
H     -1.096866     1.010653    -0.476502
H     -1.633119    -0.662413    -0.333476
H     -1.112135     0.239083     1.111605
H      0.756248    -0.442765    -1.216093
H      0.613967    -1.425986     0.232469
H      1.429144     1.256233     0.229220
9
Iteration 0, Energy=-154.0923372566, |grad|=0.006218
C     -0.917660     0.070938     0.050276
C      0.510809    -0.409729    -0.148141
O      1.449828     0.365252     0.549865
H     -1.096863     1.011556    -0.476620
H     -1.632838    -0.662132    -0.333224
H     -1.112494     0.238272     1.111666
H      0.755936    -0.442962    -1.216136
H      0.614416    -1.425686     0.232887
H      1.428866     1.254491     0.229427
9
Iteration 1, Energy=-154.0923491175, |grad|=0.006308
C     -0.917286     0.071279     0.049958
C      0.510952    -0.409788    -0.148250
O      1.449563     0.365372     0.549916
H     -1.096796     1.012674    -0.476678
H     -1.632484    -0.661766    -0.332944
H     -1.112963     0.237099     1.111643
H      0.755524    -0.443282    -1.216245
H      0.615097    -1.425321     0.233546
H      1.428393     1.253733     0.229055
9
Iteration 2, Energy=-154.0923857311, |grad|=0.005561
C     -0.915977     0.073972     0.048798
C      0.511432    -0.410218    -0.148301
O      1.448503     0.364895     0.550442
H     -1.096021     1.017713    -0.476144
H     -1.630755    -0.659850    -0.332191
H     -1.115234     0.230778     1.110986
H      0.753621    -0.445166    -1.217087
H      0.618572    -1.423494     0.237083
H      1.425858     1.251370     0.226415
9
Iteration 3, Energy=-154.0923991399, |grad|=0.009800
C     -0.916029     0.073233     0.048358
C      0.510783    -0.409058    -0.148292
O      1.448808     0.365226     0.549718
H     -1.094024     1.021416    -0.473347
H     -1.629401    -0.656917    -0.334541
H     -1.117008     0.225867     1.111010
H      0.752674    -0.447741    -1.216866
H      0.620331    -1.423432     0.240704
H      1.423867     1.251407     0.223255
9
Iteration 4, Energy=-154.0924203324, |grad|=0.006975
C     -0.915824     0.074288     0.048427
C      0.510882    -0.409773    -0.147651
O      1.448768     0.365522     0.548944
H     -1.092613     1.023155    -0.471032
H     -1.629119    -0.655595    -0.336707
H     -1.118135     0.222631     1.110923
H      0.752129    -0.449389    -1.216774
H      0.621214    -1.422669     0.242707
H      1.422698     1.251830     0.221163
9
Iteration 0, Energy=-154.0218195812, |grad|=0.426551
C     -0.866062    -0.049651     0.140623
C      0.567257    -0.408387    -0.092927
O      1.267842     0.416185     0.793253
H     -1.401325     0.818341    -0.771651
H     -1.684405    -0.763933     0.092685
H     -1.113408     0.615769     1.022060
H      0.690479    -0.083443    -1.146039
H      0.527772    -1.429476     0.023398
H      1.801744     1.084737     0.295561
9
Iteration -1, Energy=-154.0924203324, |grad|=0.006975
C     -0.915824     0.074288     0.048427
C      0.510882    -0.409773    -0.147651
O      1.448768     0.365522     0.548944
H     -1.092613     1.023155    -0.471032
H     -1.629119    -0.655595    -0.336707
H     -1.118135     0.222631     1.110923
H      0.752129    -0.449389    -1.216774
H      0.621214    -1.422669     0.242707
H      1.422698     1.251830     0.221163
9
Iteration 0, Energy=-154.0924285915, |grad|=0.007445
C     -0.915477     0.075754     0.049101
C      0.511580    -0.411650    -0.146873
O      1.448599     0.366375     0.548005
H     -1.092092     1.022308    -0.469693
H     -1.630091    -0.656099    -0.338529
H     -1.118225     0.222481     1.111078
H      0.752281    -0.449708    -1.216499
H      0.620536    -1.421918     0.242468
H      1.422890     1.252457     0.220943
9
Iteration 1, Energy=-154.0924365493, |grad|=0.004136
C     -0.915567     0.074939     0.049097
C      0.511464    -0.411060    -0.147047
O      1.448735     0.366313     0.547916
H     -1.091905     1.022501    -0.469441
H     -1.630011    -0.655756    -0.338901
H     -1.118298     0.222459     1.111289
H      0.752308    -0.449928    -1.216322
H      0.620416    -1.422279     0.242707
H      1.422858     1.252813     0.220702
9
Iteration 2, Energy=-154.0924477587, |grad|=0.003456
C     -0.915716     0.073531     0.049388
C      0.511394    -0.410581    -0.147023
O      1.449089     0.366958     0.547114
H     -1.091073     1.022619    -0.467976
H     -1.630210    -0.654984    -0.340876
H     -1.118571     0.222185     1.111911
H      0.752462    -0.450749    -1.215785
H      0.619779    -1.422808     0.243275
H      1.422845     1.253829     0.219972
9
Iteration 3, Energy=-154.0924608896, |grad|=0.005010
C     -0.915956     0.071981     0.050069
C      0.511374    -0.410564    -0.146574
O      1.449668     0.368375     0.545517
H     -1.089386     1.022681    -0.464900
H     -1.630691    -0.653672    -0.344803
H     -1.119164     0.221223     1.112849
H      0.752718    -0.452391    -1.214968
H      0.618692    -1.423294     0.244343
H      1.422745     1.255660     0.218467
9
Iteration 4, Energy=-154.0924814391, |grad|=0.006139
C     -0.916166     0.070753     0.050961
C      0.511186    -0.410926    -0.145804
O      1.450359     0.371038     0.543057
H     -1.086424     1.023896    -0.459706
H     -1.630861    -0.651019    -0.350816
H     -1.120704     0.217758     1.113871
H      0.752664    -0.455575    -1.213968
H      0.617976    -1.423450     0.246956
H      1.421969     1.257524     0.215448
9
Iteration 0, Energy=-154.0143470072, |grad|=0.750347
C     -1.037869     0.144014     0.043645
C      0.582174    -0.282220    -0.163344
O      1.309350     0.256867     0.739641
H     -1.358812     0.655883    -0.657064
H     -1.517745    -0.863092     0.074828
H     -1.169864     0.503737     0.940568
H      0.835843    -0.212430    -1.266887
H      0.599313    -1.408195    -0.040728
H      1.764877     1.017213     0.298833
9
Iteration -1, Energy=-154.0924814391, |grad|=0.006139
C     -0.916166     0.070753     0.050961
C      0.511186    -0.410926    -0.145804
O      1.450359     0.371038     0.543057
H     -1.086424     1.023896    -0.459706
H     -1.630861    -0.651019    -0.350816
H     -1.120704     0.217758     1.113871
H      0.752664    -0.455575    -1.213968
H      0.617976    -1.423450     0.246956
H      1.421969     1.257524     0.215448
9
Iteration 0, Energy=-154.0924898241, |grad|=0.004286
C     -0.915893     0.072323     0.050964
C      0.511535    -0.412034    -0.145245
O      1.450001     0.370750     0.543050
H     -1.086283     1.024147    -0.459357
H     -1.630908    -0.651121    -0.350952
H     -1.120995     0.216746     1.113598
H      0.752447    -0.455791    -1.214212
H      0.618394    -1.422575     0.247175
H      1.421701     1.257552     0.214978
9
Iteration 1, Energy=-154.0924950673, |grad|=0.003830
C     -0.915732     0.072603     0.050863
C      0.511549    -0.412021    -0.145283
O      1.449867     0.370755     0.543062
H     -1.086133     1.024808    -0.459187
H     -1.630684    -0.650829    -0.350966
H     -1.121307     0.215875     1.113502
H      0.752216    -0.456092    -1.214239
H      0.618815    -1.422365     0.247665
H      1.421410     1.257266     0.214583
9
Iteration 2, Energy=-154.0925176785, |grad|=0.009592
C     -0.915361     0.074126     0.049185
C      0.511361    -0.412000    -0.144007
O      1.449300     0.370516     0.542630
H     -1.083401     1.031550    -0.455103
H     -1.628136    -0.646427    -0.353436
H     -1.124811     0.206166     1.113273
H      0.750188    -0.460195    -1.214876
H      0.622602    -1.420316     0.253448
H      1.418260     1.256579     0.208886
9
Iteration 3, Energy=-154.0925309597, |grad|=0.008125
C     -0.914366     0.075583     0.050009
C      0.511320    -0.412452    -0.144664
O      1.449137     0.373332     0.541324
H     -1.081583     1.035033    -0.452155
H     -1.627681    -0.644542    -0.356332
H     -1.126834     0.200724     1.112739
H      0.749048    -0.462720    -1.214118
H      0.624215    -1.419507     0.256878
H      1.416744     1.254549     0.206319
9
Iteration 4, Energy=-154.0925434654, |grad|=0.004791
C     -0.914537     0.074999     0.050226
C      0.511429    -0.412375    -0.144454
O      1.449314     0.373054     0.541061
H     -1.081372     1.034398    -0.451584
H     -1.628052    -0.644556    -0.357242
H     -1.126685     0.201341     1.113050
H      0.749319    -0.462765    -1.213866
H      0.623583    -1.419782     0.256675
H      1.417002     1.255686     0.206133
9
Iteration 0, Energy=-154.0237072169, |grad|=0.624295
C     -1.039639     0.054406     0.029535
C      0.584223    -0.338984    -0.090693
O      1.193887     0.416453     0.683997
H     -1.361827     0.761868    -0.636386
H     -1.583833    -0.904220     0.019151
H     -1.161781     0.554037     1.073981
H      0.730340    -0.043399    -1.169135
H      0.528630    -1.470914    -0.034199
H      1.809927     0.957519     0.378202
9
Iteration -1, Energy=-154.0925434654, |grad|=0.004791
C     -0.914537     0.074999     0.050226
C      0.511429    -0.412375    -0.144454
O      1.449314     0.373054     0.541061
H     -1.081372     1.034398    -0.451584
H     -1.628052    -0.644556    -0.357242
H     -1.126685     0.201341     1.113050
H      0.749319    -0.462765    -1.213866
H      0.623583    -1.419782     0.256675
H      1.417002     1.255686     0.206133
9
Iteration 0, Energy=-154.0925512475, |grad|=0.007589
C     -0.914645     0.074180     0.050208
C      0.511874    -0.412691    -0.143521
O      1.449317     0.372403     0.540309
H     -1.080776     1.033625    -0.450071
H     -1.628585    -0.644221    -0.359213
H     -1.126776     0.201726     1.113865
H      0.749673    -0.463164    -1.213464
H      0.622607    -1.419771     0.256576
H      1.417312     1.257912     0.205313
9
Iteration 1, Energy=-154.0925602375, |grad|=0.004256
C     -0.914695     0.073667     0.050535
C      0.511825    -0.412814    -0.143515
O      1.449530     0.373383     0.539698
H     -1.080426     1.033350    -0.449291
H     -1.628840    -0.644006    -0.360311
H     -1.126839     0.201827     1.114103
H      0.749835    -0.463437    -1.213115
H      0.622118    -1.419970     0.256659
H      1.417492     1.258000     0.205235
9
Iteration 2, Energy=-154.0925697347, |grad|=0.002497
C     -0.914927     0.072257     0.051492
C      0.511707    -0.412871    -0.143449
O      1.450126     0.375223     0.538255
H     -1.079316     1.032660    -0.446907
H     -1.629489    -0.643257    -0.363546
H     -1.127098     0.201859     1.114733
H      0.750276    -0.464369    -1.212179
H      0.620837    -1.420591     0.257099
H      1.417885     1.259090     0.204503
9
Iteration 3, Energy=-154.0925736590, |grad|=0.002715
C     -0.915117     0.072025     0.051757
C      0.511573    -0.412942    -0.143229
O      1.450366     0.375835     0.537799
H     -1.078670     1.032761    -0.445663
H     -1.629514    -0.642656    -0.364943
H     -1.127451     0.201126     1.114910
H      0.750343    -0.465051    -1.212023
H      0.620635    -1.420678     0.257654
H      1.417834     1.259581     0.203739
9
Iteration 4, Energy=-154.0926030297, |grad|=0.005513
C     -0.915259     0.070211     0.053664
C      0.511600    -0.413392    -0.141848
O      1.451069     0.380494     0.533534
H     -1.073038     1.036273    -0.435017
H     -1.629473    -0.637017    -0.376906
H     -1.131632     0.192518     1.116718
H      0.749973    -0.471583    -1.209903
H      0.619990    -1.420476     0.263642
H      1.416770     1.262971     0.196117
9
Iteration 0, Energy=-154.0409684317, |grad|=0.491193
C     -0.860637     0.072820     0.034619
C      0.427561    -0.419844    -0.172832
O      1.237502     0.339377     0.804112
H     -1.299878     0.707245    -0.749896
H     -1.616985    -0.890579    -0.019649
H     -1.159558     0.584005     1.031182
H      0.812229    -0.151435    -1.229149
H      0.624036    -1.405358     0.042907
H      1.767612     1.074755     0.471811
9
Iteration -1, Energy=-154.0926030297, |grad|=0.005513
C     -0.915259     0.070211     0.053664
C      0.511600    -0.413392    -0.141848
O      1.451069     0.380494     0.533534
H     -1.073038     1.036273    -0.435017
H     -1.629473    -0.637017    -0.376906
H     -1.131632     0.192518     1.116718
H      0.749973    -0.471583    -1.209903
H      0.619990    -1.420476     0.263642
H      1.416770     1.262971     0.196117
9
Iteration 0, Energy=-154.0926113117, |grad|=0.005205
C     -0.915053     0.071201     0.052693
C      0.511852    -0.414060    -0.140916
O      1.450586     0.379485     0.533737
H     -1.073040     1.036944    -0.434901
H     -1.629090    -0.636769    -0.376400
H     -1.132025     0.191366     1.116717
H      0.749650    -0.471718    -1.210325
H      0.620706    -1.419507     0.263935
H      1.416415     1.263058     0.195459
9
Iteration 1, Energy=-154.0926178743, |grad|=0.003826
C     -0.914840     0.071624     0.052506
C      0.511824    -0.414068    -0.141014
O      1.450393     0.379555     0.533825
H     -1.073018     1.037769    -0.434920
H     -1.628786    -0.636530    -0.376074
H     -1.132345     0.190377     1.116435
H      0.749335    -0.471903    -1.210343
H      0.621320    -1.419178     0.264437
H      1.416118     1.262355     0.195147
9
Iteration 2, Energy=-154.0926258419, |grad|=0.004846
C     -0.914211     0.072978     0.052261
C      0.511679    -0.413266    -0.141730
O      1.449843     0.378789     0.534560
H     -1.072701     1.041171    -0.434658
H     -1.627639    -0.635411    -0.375322
H     -1.133672     0.186248     1.115166
H      0.748115    -0.472885    -1.210316
H      0.623750    -1.418371     0.266878
H      1.414835     1.260747     0.193161
9
Iteration 3, Energy=-154.0926294541, |grad|=0.003464
C     -0.914302     0.073335     0.051955
C      0.511648    -0.413972    -0.141127
O      1.449936     0.379880     0.534134
H     -1.072420     1.041464    -0.433968
H     -1.627569    -0.635090    -0.375893
H     -1.133988     0.185466     1.115316
H      0.748046    -0.473185    -1.210524
H      0.623872    -1.417970     0.267227
H      1.414777     1.260073     0.192879
9
Iteration 4, Energy=-154.0926311564, |grad|=0.002313
C     -0.914376     0.073081     0.052083
C      0.511689    -0.413918    -0.141120
O      1.450020     0.379831     0.534052
H     -1.072342     1.041225    -0.433774
H     -1.627706    -0.635089    -0.376257
H     -1.133943     0.185714     1.115466
H      0.748156    -0.473210    -1.210429
H      0.623616    -1.418120     0.267163
H      1.414885     1.260486     0.192816
9
Iteration 0, Energy=-154.0282827205, |grad|=0.490152
C     -0.938102     0.031292     0.097127
C      0.408026    -0.410147    -0.093000
O      1.222282     0.254569     0.808683
H     -1.413654     0.708450    -0.681860
H     -1.586850    -0.867755     0.048666
H     -1.075426     0.563856     0.975680
H      0.861802    -0.159942    -1.157043
H      0.494335    -1.463728    -0.009866
H      1.901667     1.064652     0.328107
9
Iteration -1, Energy=-154.0926311564, |grad|=0.002313
C     -0.914376     0.073081     0.052083
C      0.511689    -0.413918    -0.141120
O      1.450020     0.379831     0.534052
H     -1.072342     1.041225    -0.433774
H     -1.627706    -0.635089    -0.376257
H     -1.133943     0.185714     1.115466
H      0.748156    -0.473210    -1.210429
H      0.623616    -1.418120     0.267163
H      1.414885     1.260486     0.192816
9
Iteration 0, Energy=-154.0926321636, |grad|=0.004286
C     -0.914370     0.072699     0.052303
C      0.511821    -0.413638    -0.141170
O      1.450030     0.379333     0.533961
H     -1.072063     1.041293    -0.433162
H     -1.627824    -0.634825    -0.377081
H     -1.134133     0.185483     1.115640
H      0.748185    -0.473493    -1.210132
H      0.623444    -1.418266     0.267484
H      1.414909     1.261414     0.192158
9
Iteration 1, Energy=-154.0926341217, |grad|=0.002488
C     -0.914380     0.072674     0.052320
C      0.511794    -0.413766    -0.141101
O      1.450067     0.379722     0.533787
H     -1.071982     1.041293    -0.432965
H     -1.627842    -0.634747    -0.377308
H     -1.134191     0.185388     1.115690
H      0.748201    -0.473570    -1.210105
H      0.623391    -1.418237     0.267538
H      1.414943     1.261243     0.192143
9
Iteration 2, Energy=-154.0926382525, |grad|=0.001955
C     -0.914437     0.072329     0.052534
C      0.511786    -0.414034    -0.140831
O      1.450211     0.380728     0.533089
H     -1.071439     1.041361    -0.431709
H     -1.627978    -0.634217    -0.378810
H     -1.134579     0.184780     1.115999
H      0.748278    -0.474105    -1.209800
H      0.623086    -1.418217     0.268021
H      1.415071     1.261375     0.191508
9
Iteration 3, Energy=-154.0926431890, |grad|=0.003594
C     -0.914566     0.071673     0.052959
C      0.511802    -0.414328    -0.140338
O      1.450451     0.382048     0.531947
H     -1.070356     1.041593    -0.429247
H     -1.628184    -0.633124    -0.381705
H     -1.135378     0.183451     1.116540
H      0.748391    -0.475208    -1.209211
H      0.622594    -1.418206     0.269074
H      1.415247     1.262101     0.189979
9
Iteration 4, Energy=-154.0926510175, |grad|=0.004446
C     -0.914800     0.070936     0.053569
C      0.511744    -0.414627    -0.139524
O      1.450757     0.383827     0.530344
H     -1.068453     1.042507    -0.425058
H     -1.628213    -0.631038    -0.386313
H     -1.136968     0.180420     1.117176
H      0.748384    -0.477300    -1.208352
H      0.622242    -1.418027     0.271229
H      1.415308     1.263302     0.186930
9
Iteration 0, Energy=-154.0436096259, |grad|=0.503190
C     -0.875084     0.143280     0.012531
C      0.569129    -0.307120    -0.204065
O      1.212497     0.386222     0.657595
H     -1.303350     0.821917    -0.810828
H     -1.664740    -0.778776     0.068119
H     -1.015792     0.652312     0.985112
H      0.759691    -0.042776    -1.253934
H      0.633268    -1.334014    -0.096657
H      1.802508     1.130182     0.358590
9
Iteration -1, Energy=-154.0926510175, |grad|=0.004446
C     -0.914800     0.070936     0.053569
C      0.511744    -0.414627    -0.139524
O      1.450757     0.383827     0.530344
H     -1.068453     1.042507    -0.425058
H     -1.628213    -0.631038    -0.386313
H     -1.136968     0.180420     1.117176
H      0.748384    -0.477300    -1.208352
H      0.622242    -1.418027     0.271229
H      1.415308     1.263302     0.186930
9
Iteration 0, Energy=-154.0926539428, |grad|=0.003724
C     -0.914733     0.071093     0.053523
C      0.511826    -0.414259    -0.139619
O      1.450594     0.382795     0.530738
H     -1.068411     1.042945    -0.425062
H     -1.628033    -0.630885    -0.386147
H     -1.137157     0.179880     1.117018
H      0.748219    -0.477467    -1.208352
H      0.622586    -1.417957     0.271541
H      1.415110     1.263856     0.186360
9
Iteration 1, Energy=-154.0926558531, |grad|=0.002553
C     -0.914687     0.071235     0.053470
C      0.511799    -0.414319    -0.139614
O      1.450551     0.382993     0.530724
H     -1.068387     1.043169    -0.425034
H     -1.627941    -0.630808    -0.386082
H     -1.137267     0.179576     1.116951
H      0.748138    -0.477549    -1.208380
H      0.622743    -1.417850     0.271664
H      1.415051     1.263552     0.186301
9
Iteration 2, Energy=-154.0926610580, |grad|=0.001994
C     -0.914414     0.072064     0.053150
C      0.511735    -0.414423    -0.139575
O      1.450225     0.383324     0.530882
H     -1.068209     1.044585    -0.424813
H     -1.627371    -0.630297    -0.385737
H     -1.137968     0.177641     1.116544
H      0.747628    -0.478098    -1.208531
H      0.623743    -1.417234     0.272516
H      1.414631     1.262438     0.185565
9
Iteration 3, Energy=-154.0926631031, |grad|=0.001825
C     -0.914269     0.072518     0.052973
C      0.511750    -0.414446    -0.139462
O      1.450029     0.383302     0.530971
H     -1.067985     1.045527    -0.424406
H     -1.627052    -0.629876    -0.385837
H     -1.138498     0.176267     1.116352
H      0.747311    -0.478551    -1.208575
H      0.624341    -1.416850     0.273194
H      1.414373     1.262108     0.184789
9
Iteration 4, Energy=-154.0926677993, |grad|=0.002769
C     -0.914158     0.072753     0.053067
C      0.511738    -0.414259    -0.139388
O      1.449896     0.383918     0.530639
H     -1.067061     1.047420    -0.422462
H     -1.626604    -0.628580    -0.387518
H     -1.139828     0.173181     1.116167
H      0.746787    -0.479863    -1.208165
H      0.625173    -1.416422     0.275093
H      1.414057     1.261853     0.182567
9
Iteration 0, Energy=-154.0286920020, |grad|=0.604536
C     -1.026934    -0.026630    -0.047650
C      0.540008    -0.328274    -0.119613
O      1.265051     0.304082     0.799012
H     -1.287151     0.769737    -0.698599
H     -1.590576    -0.813806    -0.036585
H     -1.055145     0.692334     0.929186
H      0.880508    -0.200122    -1.165562
H      0.534433    -1.359647    -0.048550
H      1.926539     1.009206     0.360308
9
Iteration -1, Energy=-154.0926677993, |grad|=0.002769
C     -0.914158     0.072753     0.053067
C      0.511738    -0.414259    -0.139388
O      1.449896     0.383918     0.530639
H     -1.067061     1.047420    -0.422462
H     -1.626604    -0.628580    -0.387518
H     -1.139828     0.173181     1.116167
H      0.746787    -0.479863    -1.208165
H      0.625173    -1.416422     0.275093
H      1.414057     1.261853     0.182567
9
Iteration 0, Energy=-154.0926694459, |grad|=0.002086
C     -0.914207     0.072793     0.052942
C      0.511815    -0.414565    -0.138895
O      1.449885     0.383711     0.530501
H     -1.066944     1.047179    -0.422069
H     -1.626705    -0.628510    -0.387950
H     -1.139874     0.173183     1.116365
H      0.746888    -0.479922    -1.208239
H      0.624994    -1.416254     0.275042
H      1.414148     1.262386     0.182303
9
Iteration 1, Energy=-154.0926705837, |grad|=0.001860
C     -0.914247     0.072642     0.053017
C      0.511808    -0.414633    -0.138807
O      1.449945     0.383931     0.530312
H     -1.066824     1.047073    -0.421743
H     -1.626781    -0.628406    -0.388374
H     -1.139928     0.173167     1.116469
H      0.746953    -0.480008    -1.208149
H      0.624838    -1.416283     0.275103
H      1.414237     1.262517     0.182170
9
Iteration 2, Energy=-154.0926744486, |grad|=0.003058
C     -0.914657     0.070963     0.053993
C      0.511791    -0.414475    -0.138554
O      1.450469     0.385208     0.528878
H     -1.065587     1.046467    -0.418595
H     -1.627363    -0.627212    -0.392449
H     -1.140605     0.172632     1.117285
H      0.747437    -0.481031    -1.207029
H      0.623567    -1.416862     0.276111
H      1.414949     1.264308     0.180360
9
Iteration 3, Energy=-154.0926771522, |grad|=0.003006
C     -0.914687     0.071176     0.053896
C      0.511760    -0.414949    -0.138063
O      1.450443     0.386198     0.528407
H     -1.065171     1.046843    -0.417569
H     -1.627238    -0.626667    -0.393380
H     -1.141143     0.171536     1.117422
H      0.747366    -0.481564    -1.207015
H      0.623661    -1.416489     0.276630
H      1.415009     1.263917     0.179673
9
Iteration 4, Energy=-154.0926790904, |grad|=0.002790
C     -0.914634     0.071344     0.053864
C      0.511757    -0.414948    -0.138003
O      1.450360     0.386262     0.528418
H     -1.065021     1.047269    -0.417264
H     -1.627089    -0.626411    -0.393569
H     -1.141441     0.170838     1.117362
H      0.747237    -0.481839    -1.207010
H      0.623900    -1.416323     0.276977
H      1.414931     1.263809     0.179225
9
Iteration 0, Energy=-154.0186505778, |grad|=0.930404
C     -1.009484     0.061642     0.029856
C      0.400650    -0.244571    -0.101619
O      1.300818     0.415145     0.764609
H     -1.305524     0.748613    -0.653193
H     -1.621083    -0.936602     0.109593
H     -1.161667     0.547386     0.919655
H      0.707122    -0.143366    -1.211480
H      0.656627    -1.363236     0.002738
H      1.771566     0.952593     0.426781
9
Iteration -1, Energy=-154.0926790904, |grad|=0.002790
C     -0.914634     0.071344     0.053864
C      0.511757    -0.414948    -0.138003
O      1.450360     0.386262     0.528418
H     -1.065021     1.047269    -0.417264
H     -1.627089    -0.626411    -0.393569
H     -1.141441     0.170838     1.117362
H      0.747237    -0.481839    -1.207010
H      0.623900    -1.416323     0.276977
H      1.414931     1.263809     0.179225
9
Iteration 0, Energy=-154.0926802059, |grad|=0.002176
C     -0.914570     0.071322     0.053938
C      0.511789    -0.414632    -0.138181
O      1.450288     0.385706     0.528642
H     -1.064983     1.047573    -0.417243
H     -1.627012    -0.626315    -0.393556
H     -1.141565     0.170525     1.117264
H      0.747141    -0.481956    -1.206929
H      0.624077    -1.416360     0.277206
H      1.414835     1.264138     0.178859
9
Iteration 1, Energy=-154.0926808686, |grad|=0.001525
C     -0.914546     0.071391     0.053912
C      0.511778    -0.414676    -0.138165
O      1.450266     0.385843     0.528617
H     -1.064960     1.047699    -0.417195
H     -1.626968    -0.626265    -0.393563
H     -1.141637     0.170343     1.117239
H      0.747099    -0.482011    -1.206934
H      0.624153    -1.416298     0.277283
H      1.414816     1.263974     0.178807
9
Iteration 2, Energy=-154.0926830300, |grad|=0.001651
C     -0.914400     0.071803     0.053764
C      0.511755    -0.414773    -0.138084
O      1.450092     0.386188     0.528611
H     -1.064784     1.048561    -0.416842
H     -1.626677    -0.625903    -0.393639
H     -1.142133     0.169100     1.117064
H      0.746817    -0.482406    -1.206947
H      0.624677    -1.415937     0.277854
H      1.414652     1.263368     0.178219
9
Iteration 3, Energy=-154.0926845590, |grad|=0.001906
C     -0.914299     0.072215     0.053607
C      0.511762    -0.414831    -0.137917
O      1.449911     0.386314     0.528632
H     -1.064533     1.049442    -0.416301
H     -1.626379    -0.625453    -0.393893
H     -1.142696     0.167716     1.116907
H      0.746536    -0.482879    -1.206948
H      0.625206    -1.415561     0.278526
H      1.414492     1.263037     0.177386
9
Iteration 4, Energy=-154.0926876517, |grad|=0.002978
C     -0.914195     0.072416     0.053753
C      0.511676    -0.414668    -0.137797
O      1.449769     0.387031     0.528330
H     -1.063707     1.051155    -0.414401
H     -1.625947    -0.624224    -0.395528
H     -1.144006     0.164786     1.116694
H      0.746084    -0.484090    -1.206533
H      0.625949    -1.415126     0.280267
H      1.414376     1.262721     0.175214
9
Iteration 0, Energy=-154.0457135219, |grad|=0.472318
C     -1.003793    -0.011226     0.090970
C      0.442749    -0.386581    -0.095462
O      1.372524     0.331365     0.750495
H     -1.281023     0.798265    -0.762075
H     -1.659131    -0.825398     0.108107
H     -1.073320     0.592977     0.971236
H      0.862636    -0.046247    -1.145990
H      0.519859    -1.360186     0.028601
H      1.905063     1.028495     0.458092
9
Iteration -1, Energy=-154.0926876517, |grad|=0.002978
C     -0.914195     0.072416     0.053753
C      0.511676    -0.414668    -0.137797
O      1.449769     0.387031     0.528330
H     -1.063707     1.051155    -0.414401
H     -1.625947    -0.624224    -0.395528
H     -1.144006     0.164786     1.116694
H      0.746084    -0.484090    -1.206533
H      0.625949    -1.415126     0.280267
H      1.414376     1.262721     0.175214
9
Iteration 0, Energy=-154.0926889017, |grad|=0.002538
C     -0.914294     0.072428     0.053607
C      0.511816    -0.414830    -0.137375
O      1.449734     0.386521     0.528300
H     -1.063606     1.050894    -0.414054
H     -1.626026    -0.624152    -0.395894
H     -1.144038     0.164827     1.116892
H      0.746175    -0.484128    -1.206583
H      0.625784    -1.415013     0.280227
H      1.414455     1.263454     0.174879
9
Iteration 1, Energy=-154.0926897271, |grad|=0.001515
C     -0.914307     0.072336     0.053675
C      0.511786    -0.414849    -0.137406
O      1.449779     0.386789     0.528184
H     -1.063564     1.050859    -0.413938
H     -1.626057    -0.624112    -0.396064
H     -1.144056     0.164834     1.116919
H      0.746201    -0.484156    -1.206522
H      0.625714    -1.415053     0.280258
H      1.414506     1.263353     0.174893
9
Iteration 2, Energy=-154.0926911104, |grad|=0.001370
C     -0.914387     0.072005     0.053869
C      0.511752    -0.414894    -0.137370
O      1.449905     0.387301     0.527844
H     -1.063374     1.050667    -0.413399
H     -1.626189    -0.623933    -0.396794
H     -1.144145     0.164845     1.117077
H      0.746316    -0.484283    -1.206319
H      0.625430    -1.415167     0.280379
H      1.414692     1.263460     0.174714
9
Iteration 3, Energy=-154.0926923602, |grad|=0.001589
C     -0.914504     0.071541     0.054134
C      0.511731    -0.414902    -0.137274
O      1.450057     0.387760     0.527430
H     -1.063069     1.050438    -0.412549
H     -1.626361    -0.623629    -0.397903
H     -1.144322     0.164756     1.117310
H      0.746471    -0.484515    -1.206030
H      0.625051    -1.415309     0.280616
H      1.414946     1.263860     0.174267
9
Iteration 4, Energy=-154.0926941143, |grad|=0.001822
C     -0.914633     0.071227     0.054316
C      0.511739    -0.415065    -0.136886
O      1.450130     0.388360     0.526901
H     -1.062540     1.050500    -0.411113
H     -1.626425    -0.622992    -0.399507
H     -1.144860     0.163934     1.117604
H      0.746560    -0.485068    -1.205729
H      0.624795    -1.415215     0.281200
H      1.415234     1.264319     0.173213
9
Iteration 0, Energy=-154.0243514412, |grad|=0.561240
C     -0.857615     0.117043     0.141617
C      0.506799    -0.287292    -0.133394
O      1.274367     0.316475     0.747646
H     -1.402911     0.764058    -0.666760
H     -1.665097    -0.896781     0.106343
H     -1.059885     0.596151     0.978642
H      0.715914    -0.130583    -1.320441
H      0.633548    -1.436317    -0.050204
H      1.746443     1.017132     0.292733
9
Iteration -1, Energy=-154.0926941143, |grad|=0.001822
C     -0.914633     0.071227     0.054316
C      0.511739    -0.415065    -0.136886
O      1.450130     0.388360     0.526901
H     -1.062540     1.050500    -0.411113
H     -1.626425    -0.622992    -0.399507
H     -1.144860     0.163934     1.117604
H      0.746560    -0.485068    -1.205729
H      0.624795    -1.415215     0.281200
H      1.415234     1.264319     0.173213
9
Iteration 0, Energy=-154.0926946441, |grad|=0.001642
C     -0.914603     0.071248     0.054345
C      0.511765    -0.414872    -0.136962
O      1.450071     0.387977     0.527058
H     -1.062504     1.050710    -0.411067
H     -1.626361    -0.622912    -0.399512
H     -1.144964     0.163677     1.117539
H      0.746493    -0.485163    -1.205691
H      0.624926    -1.415215     0.281364
H      1.415177     1.264550     0.172926
9
Iteration 1, Energy=-154.0926950331, |grad|=0.001204
C     -0.914588     0.071300     0.054330
C      0.511756    -0.414896    -0.136951
O      1.450053     0.388071     0.527044
H     -1.062483     1.050813    -0.411019
H     -1.626324    -0.622866    -0.399526
H     -1.145028     0.163522     1.117518
H      0.746460    -0.485213    -1.205693
H      0.624987    -1.415169     0.281431
H      1.415166     1.264438     0.172866
9
Iteration 2, Energy=-154.0926967017, |grad|=0.001331
C     -0.914469     0.071714     0.054207
C      0.511724    -0.414960    -0.136848
O      1.449870     0.388423     0.527053
H     -1.062278     1.051705    -0.410563
H     -1.626012    -0.622451    -0.399696
H     -1.145591     0.162164     1.117340
H      0.746180    -0.485663    -1.205687
H      0.625519    -1.414803     0.282051
H      1.415056     1.263873     0.172143
9
Iteration 3, Energy=-154.0926976760, |grad|=0.001507
C     -0.914407     0.072002     0.054114
C      0.511725    -0.414996    -0.136688
O      1.449726     0.388570     0.527047
H     -1.062046     1.052408    -0.410003
H     -1.625778    -0.622043    -0.400042
H     -1.146101     0.160986     1.117236
H      0.745970    -0.486083    -1.205646
H      0.625911    -1.414502     0.282626
H      1.415000     1.263658     0.171357
9
Iteration 4, Energy=-154.0927001406, |grad|=0.003019
C     -0.914312     0.072131     0.054345
C      0.511636    -0.414777    -0.136518
O      1.449532     0.389509     0.526660
H     -1.061103     1.054307    -0.407634
H     -1.625310    -0.620592    -0.402143
H     -1.147706     0.157578     1.117038
H      0.745497    -0.487482    -1.205062
H      0.626671    -1.414007     0.284629
H      1.415096     1.263332     0.168685
9
Iteration 0, Energy=-154.0273560083, |grad|=0.593428
C     -1.020535    -0.039825     0.041574
C      0.480219    -0.236495    -0.108349
O      1.211195     0.345633     0.820123
H     -1.340851     0.654670    -0.821727
H     -1.609211    -0.832987     0.116114
H     -1.169921     0.606986     1.011822
H      0.810652    -0.171159    -1.178702
H      0.524583    -1.481957     0.031795
H      1.800381     1.146794     0.384930
9
Iteration -1, Energy=-154.0927001406, |grad|=0.003019
C     -0.914312     0.072131     0.054345
C      0.511636    -0.414777    -0.136518
O      1.449532     0.389509     0.526660
H     -1.061103     1.054307    -0.407634
H     -1.625310    -0.620592    -0.402143
H     -1.147706     0.157578     1.117038
H      0.745497    -0.487482    -1.205062
H      0.626671    -1.414007     0.284629
H      1.415096     1.263332     0.168685
9
Iteration 0, Energy=-154.0927015984, |grad|=0.001670
C     -0.914402     0.072174     0.054186
C      0.511741    -0.414985    -0.136122
O      1.449510     0.389158     0.526622
H     -1.061041     1.054059    -0.407376
H     -1.625373    -0.620552    -0.402400
H     -1.147714     0.157646     1.117208
H      0.745578    -0.487483    -1.205139
H      0.626530    -1.413880     0.284555
H      1.415170     1.263863     0.168467
9
Iteration 1, Energy=-154.0927021842, |grad|=0.001357
C     -0.914441     0.072077     0.054222
C      0.511737    -0.415039    -0.136067
O      1.449553     0.389314     0.526504
H     -1.060989     1.053947    -0.407205
H     -1.625425    -0.620510    -0.402631
H     -1.147724     0.157696     1.117275
H      0.745629    -0.487499    -1.205092
H      0.626416    -1.413902     0.284562
H      1.415243     1.263917     0.168432
9
Iteration 2, Energy=-154.0927041450, |grad|=0.000768
C     -0.914678     0.071213     0.054669
C      0.511702    -0.415045    -0.135952
O      1.449856     0.390025     0.525833
H     -1.060600     1.053299    -0.405987
H     -1.625791    -0.620158    -0.404329
H     -1.147843     0.157967     1.117676
H      0.745960    -0.487679    -1.204625
H      0.625661    -1.414228     0.284768
H      1.415732     1.264605     0.167947
9
Iteration 3, Energy=-154.0927048376, |grad|=0.000945
C     -0.914680     0.071186     0.054700
C      0.511699    -0.415133    -0.135761
O      1.449829     0.390275     0.525667
H     -1.060413     1.053449    -0.405446
H     -1.625766    -0.619891    -0.404887
H     -1.148131     0.157479     1.117771
H      0.745958    -0.487921    -1.204550
H      0.625654    -1.414108     0.285038
H      1.415850     1.264664     0.167468
9
Iteration 4, Energy=-154.0927095145, |grad|=0.003052
C     -0.914758     0.070983     0.055093
C      0.511697    -0.415510    -0.134537
O      1.449548     0.392253     0.524459
H     -1.058752     1.055179    -0.400751
H     -1.625367    -0.617427    -0.409607
H     -1.150786     0.152775     1.118366
H      0.745773    -0.490177    -1.203729
H      0.625869    -1.413165     0.287710
H      1.416776     1.265089     0.162996
9
Iteration 0, Energy=-154.0479648281, |grad|=0.407086
C     -0.879622     0.000443     0.122361
C      0.487648    -0.342092    -0.217459
O      1.370033     0.303308     0.760772
H     -1.346973     0.680218    -0.701690
H     -1.542131    -0.787460     0.062597
H     -1.147325     0.686330     1.030850
H      0.715587    -0.164705    -1.193594
H      0.493163    -1.489083    -0.059992
H      1.736996     1.140762     0.471628
9
Iteration -1, Energy=-154.0927095145, |grad|=0.003052
C     -0.914758     0.070983     0.055093
C      0.511697    -0.415510    -0.134537
O      1.449548     0.392253     0.524459
H     -1.058752     1.055179    -0.400751
H     -1.625367    -0.617427    -0.409607
H     -1.150786     0.152775     1.118366
H      0.745773    -0.490177    -1.203729
H      0.625869    -1.413165     0.287710
H      1.416776     1.265089     0.162996
9
Iteration 0, Energy=-154.0927107546, |grad|=0.000865
C     -0.914821     0.070873     0.055234
C      0.511698    -0.415171    -0.134861
O      1.449570     0.391993     0.524611
H     -1.058732     1.055321    -0.400766
H     -1.625314    -0.617374    -0.409574
H     -1.150801     0.152676     1.118217
H      0.745712    -0.490213    -1.203569
H      0.625956    -1.413330     0.287870
H      1.416730     1.265226     0.162838
9
Iteration 1, Energy=-154.0927109367, |grad|=0.000717
C     -0.914845     0.070893     0.055240
C      0.511677    -0.415112    -0.134924
O      1.449580     0.392020     0.524632
H     -1.058719     1.055418    -0.400737
H     -1.625275    -0.617341    -0.409550
H     -1.150828     0.152555     1.118133
H      0.745670    -0.490235    -1.203522
H      0.626027    -1.413342     0.287949
H      1.416714     1.265145     0.162780
9
Iteration 0, Energy=-154.0295507220, |grad|=0.604675
C     -0.997823     0.121206     0.045376
C      0.508844    -0.421237    -0.096535
O      1.303397     0.411796     0.667370
H     -1.419201     0.749778    -0.680822
H     -1.503475    -0.910360     0.108204
H     -0.980226     0.558489     1.065895
H      0.882863    -0.055853    -1.145422
H      0.667919    -1.378187     0.006174
H      1.798784     1.147595     0.409011
9
Iteration -1, Energy=-154.0927109367, |grad|=0.000717
C     -0.914845     0.070893     0.055240
C      0.511677    -0.415112    -0.134924
O      1.449580     0.392020     0.524632
H     -1.058719     1.055418    -0.400737
H     -1.625275    -0.617341    -0.409550
H     -1.150828     0.152555     1.118133
H      0.745670    -0.490235    -1.203522
H      0.626027    -1.413342     0.287949
H      1.416714     1.265145     0.162780
9
Iteration 0, Energy=-154.0927113819, |grad|=0.001088
C     -0.914831     0.071168     0.055027
C      0.511620    -0.415233    -0.134687
O      1.449538     0.392095     0.524636
H     -1.058675     1.055777    -0.400521
H     -1.625165    -0.617236    -0.409516
H     -1.150994     0.151986     1.117930
H      0.745524    -0.490316    -1.203525
H      0.626303    -1.413121     0.288177
H      1.416679     1.264880     0.162480
9
Iteration 1, Energy=-154.0927118327, |grad|=0.000658
C     -0.914800     0.071335     0.054923
C      0.511594    -0.415139    -0.134656
O      1.449486     0.392005     0.524720
H     -1.058606     1.056295    -0.400263
H     -1.625045    -0.617082    -0.409553
H     -1.151223     0.151292     1.117675
H      0.745331    -0.490444    -1.203403
H      0.626628    -1.412986     0.288554
H      1.416635     1.264724     0.162003
9
Iteration 2, Energy=-154.0927120999, |grad|=0.000845
C     -0.914763     0.071364     0.054927
C      0.511620    -0.415089    -0.134690
O      1.449444     0.392180     0.524686
H     -1.058512     1.056713    -0.399939
H     -1.624986    -0.616908    -0.409806
H     -1.151485     0.150709     1.117586
H      0.745202    -0.490594    -1.203262
H      0.626808    -1.412897     0.288918
H      1.416671     1.264521     0.161580
9
Iteration 0, Energy=-154.0431866324, |grad|=0.406789
C     -0.916290     0.000632     0.069268
C      0.491026    -0.418475    -0.101772
O      1.283220     0.253345     0.728402
H     -1.265413     0.656173    -0.649324
H     -1.594749    -0.802600    -0.058476
H     -1.146348     0.610231     1.013486
H      0.695955    -0.113599    -1.313537
H      0.676794    -1.430447    -0.119186
H      1.806580     1.032716     0.485424
9
Iteration -1, Energy=-154.0927120999, |grad|=0.000845
C     -0.914763     0.071364     0.054927
C      0.511620    -0.415089    -0.134690
O      1.449444     0.392180     0.524686
H     -1.058512     1.056713    -0.399939
H     -1.624986    -0.616908    -0.409806
H     -1.151485     0.150709     1.117586
H      0.745202    -0.490594    -1.203262
H      0.626808    -1.412897     0.288918
H      1.416671     1.264521     0.161580
9
Iteration 0, Energy=-154.0927122608, |grad|=0.001289
C     -0.914802     0.071328     0.054937
C      0.511661    -0.415148    -0.134520
O      1.449428     0.392051     0.524669
H     -1.058449     1.056581    -0.399739
H     -1.625014    -0.616829    -0.410079
H     -1.151559     0.150696     1.117746
H      0.745279    -0.490653    -1.203329
H      0.626701    -1.412859     0.288938
H      1.416753     1.264832     0.161378
9
Iteration 0, Energy=-154.0389514443, |grad|=0.435822
C     -0.901773     0.126547     0.136685
C      0.489561    -0.383010    -0.164225
O      1.258498     0.409351     0.723156
H     -1.290312     0.746044    -0.715773
H     -1.682948    -0.926246     0.083514
H     -0.998309     0.685329     1.025023
H      0.707283    -0.223449    -1.140081
H      0.674148    -1.366764    -0.024776
H      1.845158     1.084467     0.310979
9
Iteration -1, Energy=-154.0927122608, |grad|=0.001289
C     -0.914802     0.071328     0.054937
C      0.511661    -0.415148    -0.134520
O      1.449428     0.392051     0.524669
H     -1.058449     1.056581    -0.399739
H     -1.625014    -0.616829    -0.410079
H     -1.151559     0.150696     1.117746
H      0.745279    -0.490653    -1.203329
H      0.626701    -1.412859     0.288938
H      1.416753     1.264832     0.161378
9
Iteration 0, Energy=-154.0927124437, |grad|=0.000637
C     -0.914804     0.071293     0.054978
C      0.511646    -0.415141    -0.134569
O      1.449442     0.392187     0.524629
H     -1.058438     1.056587    -0.399713
H     -1.625014    -0.616810    -0.410125
H     -1.151573     0.150685     1.117748
H      0.745283    -0.490667    -1.203301
H      0.626687    -1.412880     0.288958
H      1.416771     1.264745     0.161396
9
Iteration 0, Energy=-154.0228823580, |grad|=0.567324
C     -0.889908     0.059723    -0.019761
C      0.573434    -0.341536    -0.129876
O      1.277333     0.347797     0.688200
H     -1.349188     0.661744    -0.655988
H     -1.557795    -0.799836     0.038965
H     -1.015942     0.673191     1.100177
H      0.773352    -0.181698    -1.319348
H      0.533096    -1.490098     0.041999
H      1.901698     1.034988     0.413899
9
Iteration -1, Energy=-154.0927124437, |grad|=0.000637
C     -0.914804     0.071293     0.054978
C      0.511646    -0.415141    -0.134569
O      1.449442     0.392187     0.524629
H     -1.058438     1.056587    -0.399713
H     -1.625014    -0.616810    -0.410125
H     -1.151573     0.150685     1.117748
H      0.745283    -0.490667    -1.203301
H      0.626687    -1.412880     0.288958
H      1.416771     1.264745     0.161396
9
Iteration 0, Energy=-154.0927125691, |grad|=0.000836
C     -0.914821     0.071193     0.055082
C      0.511626    -0.415107    -0.134653
O      1.449463     0.392404     0.524550
H     -1.058391     1.056583    -0.399587
H     -1.625016    -0.616735    -0.410311
H     -1.151636     0.150632     1.117783
H      0.745305    -0.490723    -1.203231
H      0.626635    -1.412923     0.289029
H      1.416834     1.264676     0.161339
9
Iteration 0, Energy=-154.0018023044, |grad|=0.666363
C     -1.048579    -0.029472    -0.002998
C      0.537055    -0.235861    -0.096857
O      1.270231     0.367868     0.766399
H     -1.284464     0.643502    -0.648762
H     -1.679060    -0.948772     0.015248
H     -0.976019     0.579038     1.090333
H      0.787458    -0.107099    -1.302651
H      0.623139    -1.526089    -0.070284
H      1.816996     1.053043     0.458514
9
Iteration -1, Energy=-154.0927125691, |grad|=0.000836
C     -0.914821     0.071193     0.055082
C      0.511626    -0.415107    -0.134653
O      1.449463     0.392404     0.524550
H     -1.058391     1.056583    -0.399587
H     -1.625016    -0.616735    -0.410311
H     -1.151636     0.150632     1.117783
H      0.745305    -0.490723    -1.203231
H      0.626635    -1.412923     0.289029
H      1.416834     1.264676     0.161339
9
Iteration 0, Energy=-154.0927126817, |grad|=0.000546
C     -0.914829     0.071201     0.055062
C      0.511644    -0.415120    -0.134573
O      1.449445     0.392288     0.524563
H     -1.058369     1.056561    -0.399512
H     -1.625017    -0.616705    -0.410387
H     -1.151667     0.150594     1.117818
H      0.745318    -0.490747    -1.203246
H      0.626622    -1.412892     0.289043
H      1.416854     1.264820     0.161233
9
Iteration 0, Energy=-154.0457371045, |grad|=0.368898
C     -0.957346     0.039493     0.103670
C      0.396564    -0.355041    -0.235063
O      1.245152     0.358271     0.710956
H     -1.349712     0.767311    -0.731603
H     -1.557908    -0.824261     0.032713
H     -0.997407     0.613382     1.050802
H      0.789588    -0.085083    -1.170617
H      0.604963    -1.503561    -0.077464
H      1.894506     1.131993     0.422125
9
Iteration -1, Energy=-154.0927126817, |grad|=0.000546
C     -0.914829     0.071201     0.055062
C      0.511644    -0.415120    -0.134573
O      1.449445     0.392288     0.524563
H     -1.058369     1.056561    -0.399512
H     -1.625017    -0.616705    -0.410387
H     -1.151667     0.150594     1.117818
H      0.745318    -0.490747    -1.203246
H      0.626622    -1.412892     0.289043
H      1.416854     1.264820     0.161233
9
Iteration 0, Energy=-154.0927127085, |grad|=0.000475
C     -0.914831     0.071195     0.055068
C      0.511641    -0.415124    -0.134573
O      1.449446     0.392319     0.524551
H     -1.058363     1.056562    -0.399494
H     -1.625017    -0.616696    -0.410409
H     -1.151676     0.150582     1.117823
H      0.745320    -0.490754    -1.203241
H      0.626617    -1.412892     0.289050
H      1.416862     1.264807     0.161225
9
Iteration 0, Energy=-154.0289351321, |grad|=0.546394
C     -0.961782    -0.038118     0.121245
C      0.480487    -0.236572    -0.249732
O      1.311277     0.235791     0.763278
H     -1.279839     0.780017    -0.769649
H     -1.524408    -0.869066     0.047062
H     -1.165643     0.551650     0.932076
H      0.700698    -0.160047    -1.223194
H      0.495310    -1.383289    -0.135923
H      1.756181     1.047181     0.433505
