14
molecule_CCCC_best_hybrid
C     -1.645148     0.331066     0.010259
C     -0.573112    -0.458898    -0.739005
C      0.691676    -0.752717     0.073378
C      1.514793     0.480338     0.443118
H     -1.299651     1.328489     0.290331
H     -1.946120    -0.186174     0.926046
H     -2.537499     0.456377    -0.607627
H     -0.297072     0.079223    -1.652917
H     -1.003372    -1.410398    -1.066709
H      0.415766    -1.292634     0.986252
H      1.322764    -1.436339    -0.503108
H      2.427012     0.193526     0.971730
H      0.962262     1.162891     1.092424
H      1.810902     1.037575    -0.450561