14
molecule_CCCC_best_lbfgs
C     -1.642117     0.333731     0.011688
C     -0.574518    -0.459411    -0.740319
C      0.692986    -0.754427     0.067318
C      1.510569     0.478902     0.448342
H     -1.296025     1.334078     0.280497
H     -1.934650    -0.176415     0.934187
H     -2.539775     0.451999    -0.599831
H     -0.301316     0.077294    -1.655852
H     -1.007376    -1.410671    -1.065375
H      0.421228    -1.304933     0.975152
H      1.326703    -1.428974    -0.516901
H      2.428878     0.190365     0.965227
H      0.958906     1.147922     1.112275
H      1.795766     1.051302    -0.439292