9
Iteration -1, Energy=-154.0855821065, |grad|=0.023006
C     -0.983669     0.057162     0.024265
C      0.488936    -0.324526    -0.179249
O      1.335264     0.308956     0.754771
H     -1.357455     0.737536    -0.739569
H     -1.614988    -0.830446     0.034757
H     -1.074031     0.541727     0.990975
H      0.795977    -0.125698    -1.207588
H      0.613361    -1.390190    -0.026654
H      1.796605     1.025478     0.348292
9
Iteration 1, Energy=-154.0856645606, |grad|=0.026335
C     -0.976602     0.054612     0.024947
C      0.485653    -0.322588    -0.175119
O      1.336514     0.309912     0.748679
H     -1.357794     0.740081    -0.741109
H     -1.618245    -0.831236     0.031960
H     -1.076705     0.543596     0.996033
H      0.799471    -0.123285    -1.208539
H      0.613781    -1.397023    -0.024695
H      1.793927     1.025933     0.347844
9
Iteration 2, Energy=-154.0857635419, |grad|=0.011855
C     -0.979006     0.055867     0.025744
C      0.487756    -0.324834    -0.176800
O      1.336241     0.308881     0.749402
H     -1.356972     0.739677    -0.740277
H     -1.618134    -0.830654     0.031257
H     -1.077114     0.543192     0.995889
H      0.799547    -0.123165    -1.207366
H      0.613625    -1.396586    -0.024379
H      1.794057     1.027623     0.346532
9
Iteration 3, Energy=-154.0858310658, |grad|=0.009003
C     -0.980333     0.056702     0.027134
C      0.489355    -0.327803    -0.177789
O      1.337461     0.308555     0.748055
H     -1.355462     0.740000    -0.739190
H     -1.619144    -0.829620     0.028852
H     -1.078872     0.543015     0.997500
H      0.801078    -0.122222    -1.205885
H      0.613559    -1.398454    -0.023127
H      1.792358     1.029828     0.344450
9
Iteration 4, Energy=-154.0859272463, |grad|=0.013268
C     -0.981060     0.057269     0.029949
C      0.491078    -0.332358    -0.177759
O      1.340951     0.307299     0.744408
H     -1.351703     0.741607    -0.736695
H     -1.622142    -0.826999     0.022756
H     -1.083254     0.542302     1.001669
H      0.805021    -0.120473    -1.203322
H      0.613686    -1.403858    -0.020017
H      1.787423     1.035210     0.339011
9
Iteration 5, Energy=-154.0860386991, |grad|=0.019901
C     -0.981243     0.057879     0.033423
C      0.492732    -0.338127    -0.176083
O      1.350237     0.307414     0.739351
H     -1.344254     0.745311    -0.731519
H     -1.626998    -0.822250     0.012955
H     -1.089572     0.538512     1.006263
H      0.809349    -0.121022    -1.199336
H      0.613959    -1.409038    -0.015797
H      1.775790     1.041321     0.330742
9
Iteration 6, Energy=-154.0861987125, |grad|=0.017189
C     -0.978636     0.057129     0.037595
C      0.494648    -0.342873    -0.171002
O      1.361764     0.303141     0.732745
H     -1.332805     0.752722    -0.724185
H     -1.634587    -0.815367    -0.001820
H     -1.098729     0.532016     1.013571
H      0.814750    -0.123797    -1.194113
H      0.614711    -1.416583    -0.009255
H      1.758883     1.053611     0.316465
9
Iteration 7, Energy=-154.0864136462, |grad|=0.015257
C     -0.974469     0.055945     0.040129
C      0.497129    -0.346016    -0.163800
O      1.375982     0.300034     0.725165
H     -1.318104     0.764688    -0.715496
H     -1.641531    -0.807794    -0.018089
H     -1.106925     0.520915     1.020377
H      0.816048    -0.133190    -1.188979
H      0.615746    -1.420029    -0.002007
H      1.736124     1.065448     0.302700
9
Iteration 8, Energy=-154.0868148669, |grad|=0.028409
C     -0.964974     0.058441     0.043806
C      0.498008    -0.352909    -0.152110
O      1.401341     0.295890     0.710527
H     -1.285394     0.794594    -0.696761
H     -1.649922    -0.794428    -0.051500
H     -1.118531     0.492434     1.032997
H      0.811491    -0.161521    -1.184123
H      0.618834    -1.424680     0.016403
H      1.689146     1.092179     0.280762
9
Iteration 9, Energy=-154.0873803602, |grad|=0.044790
C     -0.956226     0.057732     0.043425
C      0.503038    -0.358499    -0.138671
O      1.424753     0.296474     0.686712
H     -1.243016     0.838752    -0.672682
H     -1.650998    -0.775436    -0.092781
H     -1.126759     0.452892     1.050204
H      0.796867    -0.207507    -1.183639
H      0.622152    -1.427204     0.043469
H      1.630190     1.122797     0.263961
9
Iteration 10, Energy=-154.0883721471, |grad|=0.047570
C     -0.941548     0.066742     0.043317
C      0.504144    -0.367590    -0.132720
O      1.437757     0.306551     0.658650
H     -1.198386     0.888510    -0.644247
H     -1.645508    -0.759896    -0.137369
H     -1.127374     0.405862     1.065468
H      0.773120    -0.266380    -1.191198
H      0.625330    -1.427434     0.078646
H      1.572466     1.153634     0.259453
9
Iteration 1, Energy=-154.0884586526, |grad|=0.048547
C     -0.941554     0.066736     0.043211
C      0.504061    -0.367515    -0.132742
O      1.436566     0.306636     0.657042
H     -1.194384     0.888485    -0.641358
H     -1.645498    -0.759183    -0.141951
H     -1.127311     0.402758     1.066644
H      0.773077    -0.266419    -1.191208
H      0.625324    -1.427243     0.081379
H      1.567950     1.156975     0.259485
9
Iteration 2, Energy=-154.0883882562, |grad|=0.046913
C     -0.942040     0.066474     0.043148
C      0.504166    -0.367080    -0.133031
O      1.437521     0.306440     0.658747
H     -1.198452     0.887076    -0.644230
H     -1.645391    -0.759953    -0.137516
H     -1.127077     0.406256     1.065548
H      0.773597    -0.264923    -1.191170
H      0.625195    -1.427403     0.078468
H      1.572567     1.153719     0.260026
9
Iteration -1, Energy=-154.0883882562, |grad|=0.046913
C     -0.942040     0.066474     0.043148
C      0.504166    -0.367080    -0.133031
O      1.437521     0.306440     0.658747
H     -1.198452     0.887076    -0.644230
H     -1.645391    -0.759953    -0.137516
H     -1.127077     0.406256     1.065548
H      0.773597    -0.264923    -1.191170
H      0.625195    -1.427403     0.078468
H      1.572567     1.153719     0.260026
9
Iteration 1, Energy=-154.0888755462, |grad|=0.029244
C     -0.948635     0.069825     0.045392
C      0.507025    -0.376306    -0.142838
O      1.434758     0.312055     0.657075
H     -1.198401     0.884837    -0.640303
H     -1.641212    -0.757244    -0.140159
H     -1.125345     0.406275     1.065490
H      0.773770    -0.265319    -1.191655
H      0.623779    -1.428293     0.083037
H      1.574348     1.154776     0.263950
9
Iteration 2, Energy=-154.0891189296, |grad|=0.022542
C     -0.948872     0.069741     0.045911
C      0.506227    -0.378258    -0.146360
O      1.430413     0.311803     0.655679
H     -1.199123     0.884465    -0.637509
H     -1.638880    -0.755530    -0.143050
H     -1.123645     0.406678     1.067032
H      0.774753    -0.266203    -1.195420
H      0.622910    -1.431430     0.087852
H      1.576304     1.159341     0.265854
9
Iteration 3, Energy=-154.0894717940, |grad|=0.019939
C     -0.943955     0.068224     0.047571
C      0.500999    -0.383854    -0.154647
O      1.416826     0.318515     0.647006
H     -1.202746     0.886032    -0.628082
H     -1.633441    -0.751618    -0.154891
H     -1.116097     0.407010     1.072841
H      0.778246    -0.271698    -1.211155
H      0.619054    -1.440517     0.104938
H      1.581202     1.168514     0.276407
9
Iteration 4, Energy=-154.0896299902, |grad|=0.022597
C     -0.942851     0.068017     0.047459
C      0.504296    -0.383398    -0.157878
O      1.413514     0.316151     0.647413
H     -1.204122     0.890308    -0.623636
H     -1.634576    -0.752099    -0.161268
H     -1.109487     0.403058     1.073394
H      0.776615    -0.280371    -1.213984
H      0.616266    -1.436257     0.110718
H      1.580433     1.175198     0.277771
9
Iteration 5, Energy=-154.0897647816, |grad|=0.020088
C     -0.942334     0.067242     0.045515
C      0.505168    -0.381889    -0.158323
O      1.414056     0.317292     0.647342
H     -1.204727     0.893841    -0.620584
H     -1.635636    -0.752188    -0.165188
H     -1.104674     0.399360     1.073792
H      0.775384    -0.287252    -1.215436
H      0.614529    -1.432465     0.113749
H      1.578320     1.176666     0.279122
9
Iteration 6, Energy=-154.0901548373, |grad|=0.021144
C     -0.941627     0.070047     0.038616
C      0.501129    -0.377428    -0.160112
O      1.417119     0.324929     0.641123
H     -1.206780     0.914939    -0.600113
H     -1.637020    -0.748081    -0.189576
H     -1.076908     0.370870     1.072431
H      0.773475    -0.327141    -1.225155
H      0.605988    -1.417949     0.136151
H      1.564711     1.190421     0.286623
9
Iteration 7, Energy=-154.0902102017, |grad|=0.035613
C     -0.939749     0.065498     0.025722
C      0.504000    -0.376971    -0.166854
O      1.416637     0.331295     0.628568
H     -1.207228     0.935031    -0.585509
H     -1.634098    -0.738303    -0.206985
H     -1.063384     0.349839     1.083027
H      0.773173    -0.354421    -1.224747
H      0.599111    -1.413022     0.156003
H      1.551624     1.201662     0.290763
9
Iteration 8, Energy=-154.0904175805, |grad|=0.014852
C     -0.939312     0.069784     0.030957
C      0.502518    -0.379762    -0.164468
O      1.417627     0.330572     0.628969
H     -1.206003     0.931439    -0.588038
H     -1.634619    -0.739604    -0.204019
H     -1.068207     0.351811     1.079785
H      0.774886    -0.348233    -1.224351
H      0.600782    -1.415469     0.152483
H      1.552414     1.200070     0.288669
9
Iteration 9, Energy=-154.0905586973, |grad|=0.011779
C     -0.938090     0.073346     0.032928
C      0.501712    -0.382561    -0.163476
O      1.419920     0.331481     0.624004
H     -1.203619     0.936199    -0.584782
H     -1.633980    -0.736226    -0.207948
H     -1.069686     0.344122     1.079837
H      0.777455    -0.352249    -1.223449
H      0.600144    -1.417135     0.156648
H      1.546231     1.203629     0.286226
9
Iteration 10, Energy=-154.0908488228, |grad|=0.020571
C     -0.933831     0.080878     0.033942
C      0.501710    -0.389184    -0.161874
O      1.427854     0.335211     0.607348
H     -1.195216     0.955353    -0.570436
H     -1.632063    -0.723458    -0.224749
H     -1.071816     0.316854     1.084333
H      0.784134    -0.371736    -1.221025
H      0.596339    -1.420034     0.173801
H      1.522976     1.216724     0.278650
9
Iteration 1, Energy=-154.0909048214, |grad|=0.020153
C     -0.933307     0.081002     0.034329
C      0.501596    -0.389760    -0.161418
O      1.428954     0.335285     0.603814
H     -1.193568     0.958308    -0.568508
H     -1.632062    -0.721010    -0.227333
H     -1.074540     0.313715     1.085087
H      0.784666    -0.373533    -1.219850
H      0.596934    -1.420560     0.176760
H      1.518711     1.218942     0.277158
9
Iteration 2, Energy=-154.0908454504, |grad|=0.020738
C     -0.934196     0.078882     0.033529
C      0.501556    -0.390756    -0.162054
O      1.427593     0.335172     0.605593
H     -1.195872     0.955347    -0.570291
H     -1.632894    -0.723248    -0.224524
H     -1.072349     0.315395     1.083752
H      0.782234    -0.371348    -1.220750
H      0.596531    -1.419760     0.174210
H      1.523156     1.216671     0.279076
9
Iteration -1, Energy=-154.0909048214, |grad|=0.020153
C     -0.933307     0.081002     0.034329
C      0.501596    -0.389760    -0.161418
O      1.428954     0.335285     0.603814
H     -1.193568     0.958308    -0.568508
H     -1.632062    -0.721010    -0.227333
H     -1.074540     0.313715     1.085087
H      0.784666    -0.373533    -1.219850
H      0.596934    -1.420560     0.176760
H      1.518711     1.218942     0.277158
9
Iteration 1, Energy=-154.0910005503, |grad|=0.012669
C     -0.933892     0.077124     0.031774
C      0.503790    -0.387940    -0.162155
O      1.430186     0.336339     0.604559
H     -1.191282     0.958142    -0.566747
H     -1.631709    -0.719253    -0.228512
H     -1.076513     0.315295     1.088216
H      0.783478    -0.374135    -1.220295
H      0.596691    -1.420845     0.177211
H      1.516634     1.217661     0.275988
9
Iteration 2, Energy=-154.0910590175, |grad|=0.011488
C     -0.933166     0.075968     0.032644
C      0.505556    -0.387923    -0.161922
O      1.431051     0.336517     0.605250
H     -1.188653     0.957823    -0.564842
H     -1.632436    -0.718829    -0.230623
H     -1.078555     0.316218     1.089119
H      0.782525    -0.374648    -1.221253
H      0.596631    -1.420304     0.177391
H      1.514426     1.217567     0.274275
9
Iteration 3, Energy=-154.0912159932, |grad|=0.023110
C     -0.928702     0.071044     0.040287
C      0.509205    -0.389726    -0.158864
O      1.436316     0.341881     0.604016
H     -1.170872     0.957214    -0.553097
H     -1.634501    -0.714664    -0.244083
H     -1.091056     0.318925     1.092004
H      0.777503    -0.377311    -1.224819
H      0.598997    -1.420219     0.179350
H      1.500491     1.215245     0.265245
9
Iteration 4, Energy=-154.0912928604, |grad|=0.023810
C     -0.926920     0.068752     0.044956
C      0.512248    -0.391608    -0.156099
O      1.437844     0.338159     0.602282
H     -1.156153     0.958056    -0.544062
H     -1.634545    -0.710296    -0.254467
H     -1.100709     0.318948     1.094695
H      0.773010    -0.379379    -1.224582
H      0.602580    -1.421585     0.181722
H      1.490026     1.221341     0.255595
9
Iteration 5, Energy=-154.0913824963, |grad|=0.012981
C     -0.927436     0.070296     0.044597
C      0.510317    -0.392962    -0.155944
O      1.437164     0.339796     0.600014
H     -1.157051     0.959260    -0.545241
H     -1.633670    -0.710171    -0.253589
H     -1.099648     0.317169     1.094085
H      0.773282    -0.379162    -1.222878
H      0.603421    -1.422546     0.181936
H      1.491003     1.220708     0.257057
9
Iteration 6, Energy=-154.0915091341, |grad|=0.010123
C     -0.926982     0.071546     0.046387
C      0.507653    -0.396965    -0.153601
O      1.437239     0.342926     0.593021
H     -1.148656     0.963833    -0.541952
H     -1.631783    -0.706514    -0.259041
H     -1.104013     0.312344     1.095294
H      0.770357    -0.380612    -1.218711
H      0.608115    -1.426328     0.184544
H      1.485453     1.222158     0.254098
9
Iteration 7, Energy=-154.0916338018, |grad|=0.013357
C     -0.925435     0.071866     0.049634
C      0.506179    -0.402408    -0.149172
O      1.438867     0.346666     0.583666
H     -1.131571     0.971921    -0.534252
H     -1.630015    -0.699614    -0.270899
H     -1.113405     0.304356     1.098899
H      0.763808    -0.384717    -1.213765
H      0.615782    -1.431877     0.189742
H      1.473173     1.226196     0.246186
9
Iteration 8, Energy=-154.0918250852, |grad|=0.013720
C     -0.923871     0.073795     0.052906
C      0.507596    -0.408623    -0.142141
O      1.444209     0.353667     0.572507
H     -1.105403     0.987499    -0.520811
H     -1.629631    -0.686490    -0.291300
H     -1.125292     0.284284     1.103963
H      0.751170    -0.397766    -1.209718
H      0.626788    -1.437570     0.201505
H      1.451817     1.233593     0.233127
9
Iteration 9, Energy=-154.0919536318, |grad|=0.020425
C     -0.914680     0.071848     0.054184
C      0.506275    -0.413952    -0.137280
O      1.446771     0.359819     0.559352
H     -1.082867     1.003323    -0.504271
H     -1.630348    -0.671011    -0.313586
H     -1.135177     0.262225     1.109872
H      0.740725    -0.414944    -1.206399
H      0.634920    -1.437199     0.216337
H      1.431763     1.242280     0.221831
9
Iteration 10, Energy=-154.0921441639, |grad|=0.013924
C     -0.913300     0.072918     0.055490
C      0.511154    -0.417024    -0.134653
O      1.450180     0.366463     0.549102
H     -1.062690     1.017020    -0.486462
H     -1.630918    -0.654638    -0.334990
H     -1.141188     0.237772     1.113009
H      0.730686    -0.435065    -1.205901
H      0.640740    -1.435407     0.232818
H      1.412719     1.250349     0.211627
9
Iteration 1, Energy=-154.0921651612, |grad|=0.016942
C     -0.911279     0.072705     0.054969
C      0.511129    -0.417093    -0.134755
O      1.451602     0.367137     0.548500
H     -1.060413     1.017459    -0.481836
H     -1.630889    -0.652775    -0.339589
H     -1.140892     0.237768     1.113781
H      0.730659    -0.437665    -1.206237
H      0.640615    -1.435358     0.235730
H      1.407930     1.251313     0.210430
9
Iteration 2, Energy=-154.0921652890, |grad|=0.017855
C     -0.912430     0.072741     0.055086
C      0.511383    -0.414443    -0.135605
O      1.450750     0.365884     0.553174
H     -1.063447     1.013252    -0.482801
H     -1.630813    -0.654304    -0.336835
H     -1.140005     0.236618     1.112222
H      0.731517    -0.436414    -1.206636
H      0.639201    -1.434668     0.233603
H      1.411319     1.249794     0.211506
9
Iteration -1, Energy=-154.0921441639, |grad|=0.013924
C     -0.913300     0.072918     0.055490
C      0.511154    -0.417024    -0.134653
O      1.450180     0.366463     0.549102
H     -1.062690     1.017020    -0.486462
H     -1.630918    -0.654638    -0.334990
H     -1.141188     0.237772     1.113009
H      0.730686    -0.435065    -1.205901
H      0.640740    -1.435407     0.232818
H      1.412719     1.250349     0.211627
9
Iteration 1, Energy=-154.0922124735, |grad|=0.014327
C     -0.916720     0.073853     0.056333
C      0.511430    -0.416382    -0.136266
O      1.450235     0.368967     0.548423
H     -1.063916     1.014390    -0.482429
H     -1.630082    -0.653262    -0.336460
H     -1.139025     0.237377     1.111088
H      0.733378    -0.437435    -1.208493
H      0.638560    -1.434172     0.235007
H      1.413521     1.249052     0.212837
9
Iteration 2, Energy=-154.0922673402, |grad|=0.010562
C     -0.917055     0.073172     0.056168
C      0.511010    -0.415341    -0.137481
O      1.450017     0.368037     0.548543
H     -1.065557     1.013601    -0.479443
H     -1.630067    -0.652486    -0.338025
H     -1.137432     0.237078     1.110818
H      0.735753    -0.439650    -1.210390
H      0.636574    -1.432726     0.237017
H      1.414139     1.250703     0.212832
9
Iteration 3, Energy=-154.0923582412, |grad|=0.009457
C     -0.915751     0.070623     0.055127
C      0.510015    -0.414055    -0.141046
O      1.449059     0.368152     0.547586
H     -1.070866     1.013612    -0.472010
H     -1.630895    -0.651106    -0.342722
H     -1.133168     0.235775     1.111398
H      0.742119    -0.445900    -1.214423
H      0.630720    -1.427971     0.242366
H      1.416149     1.253260     0.213764
9
Iteration 4, Energy=-154.0924182978, |grad|=0.011191
C     -0.915682     0.070214     0.053631
C      0.512978    -0.413908    -0.145082
O      1.447002     0.368552     0.544940
H     -1.077483     1.017501    -0.465519
H     -1.632337    -0.650717    -0.347751
H     -1.127769     0.231276     1.112323
H      0.747947    -0.453223    -1.215197
H      0.624396    -1.423306     0.248101
H      1.418330     1.256000     0.214593
9
Iteration 5, Energy=-154.0924657955, |grad|=0.007936
C     -0.914791     0.070267     0.050211
C      0.511281    -0.412928    -0.146105
O      1.447545     0.371316     0.542714
H     -1.083412     1.022901    -0.460678
H     -1.633112    -0.650086    -0.351412
H     -1.122729     0.224874     1.113266
H      0.753027    -0.460110    -1.216156
H      0.619803    -1.420928     0.253136
H      1.419770     1.257083     0.215064
9
Iteration 6, Energy=-154.0924933603, |grad|=0.005535
C     -0.915497     0.072123     0.049247
C      0.511126    -0.413138    -0.145889
O      1.448284     0.372039     0.541994
H     -1.085218     1.026259    -0.459953
H     -1.632948    -0.649801    -0.352147
H     -1.120887     0.220319     1.112644
H      0.753872    -0.462583    -1.214770
H      0.618889    -1.420698     0.254592
H      1.419761     1.257868     0.214321
9
Iteration 7, Energy=-154.0925140248, |grad|=0.006402
C     -0.916534     0.074633     0.046848
C      0.511586    -0.411472    -0.144598
O      1.448961     0.372777     0.540213
H     -1.087095     1.031283    -0.457952
H     -1.631355    -0.647269    -0.353296
H     -1.119091     0.211302     1.111657
H      0.754489    -0.467058    -1.212226
H      0.617505    -1.420451     0.257576
H      1.418916     1.258643     0.211818
9
Iteration 8, Energy=-154.0925248730, |grad|=0.004805
C     -0.915517     0.076190     0.047736
C      0.510723    -0.412549    -0.144443
O      1.449848     0.373438     0.540255
H     -1.087053     1.032584    -0.456521
H     -1.630954    -0.646230    -0.354811
H     -1.119349     0.207624     1.110726
H      0.754554    -0.468696    -1.211679
H      0.616938    -1.419198     0.258805
H      1.418192     1.259225     0.209971
9
Iteration 9, Energy=-154.0925320175, |grad|=0.003893
C     -0.915216     0.075762     0.047921
C      0.510901    -0.412458    -0.144493
O      1.449814     0.373652     0.540112
H     -1.086429     1.032497    -0.455711
H     -1.630573    -0.645446    -0.355555
H     -1.120114     0.207073     1.110997
H      0.754375    -0.468993    -1.211813
H      0.616775    -1.418839     0.259365
H      1.417850     1.259141     0.209217
9
Iteration 10, Energy=-154.0925724688, |grad|=0.005224
C     -0.912413     0.074714     0.049502
C      0.512451    -0.411889    -0.143124
O      1.449826     0.376475     0.537236
H     -1.080581     1.034687    -0.446757
H     -1.627424    -0.638441    -0.364742
H     -1.126889     0.197397     1.113335
H      0.752855    -0.473671    -1.212048
H      0.615256    -1.416007     0.266178
H      1.414302     1.259126     0.200460
9
Iteration 1, Energy=-154.0925599421, |grad|=0.012933
C     -0.914770     0.074780     0.048856
C      0.511314    -0.413589    -0.143149
O      1.449726     0.377170     0.536143
H     -1.080442     1.035639    -0.444355
H     -1.628421    -0.638769    -0.366454
H     -1.125153     0.194556     1.112619
H      0.752880    -0.475649    -1.211925
H      0.615125    -1.415920     0.268487
H      1.413375     1.259397     0.207917
9
Iteration 2, Energy=-154.0925757805, |grad|=0.007285
C     -0.913149     0.075880     0.048849
C      0.512252    -0.412730    -0.140926
O      1.451470     0.377160     0.535642
H     -1.079304     1.038940    -0.446503
H     -1.627373    -0.637456    -0.365872
H     -1.126682     0.192779     1.112677
H      0.750437    -0.474610    -1.211012
H      0.616786    -1.417088     0.266993
H      1.411410     1.259402     0.201379
9
Iteration -1, Energy=-154.0925724688, |grad|=0.005224
C     -0.912413     0.074714     0.049502
C      0.512451    -0.411889    -0.143124
O      1.449826     0.376475     0.537236
H     -1.080581     1.034687    -0.446757
H     -1.627424    -0.638441    -0.364742
H     -1.126889     0.197397     1.113335
H      0.752855    -0.473671    -1.212048
H      0.615256    -1.416007     0.266178
H      1.414302     1.259126     0.200460
9
Iteration 1, Energy=-154.0925825378, |grad|=0.004663
C     -0.913706     0.075045     0.050496
C      0.512029    -0.413156    -0.143361
O      1.450330     0.377222     0.536826
H     -1.079873     1.035867    -0.446373
H     -1.627822    -0.639277    -0.365962
H     -1.126861     0.197366     1.113089
H      0.752700    -0.473565    -1.211266
H      0.616006    -1.416771     0.266402
H      1.414578     1.259658     0.200189
9
Iteration 2, Energy=-154.0925901511, |grad|=0.003131
C     -0.914583     0.074896     0.050253
C      0.511550    -0.413449    -0.142743
O      1.450506     0.377306     0.536202
H     -1.079058     1.036907    -0.445708
H     -1.628138    -0.639790    -0.367108
H     -1.127083     0.197365     1.113523
H      0.752500    -0.473564    -1.210787
H      0.616877    -1.417737     0.266715
H      1.414809     1.260454     0.199693
9
Iteration 3, Energy=-154.0925964002, |grad|=0.004497
C     -0.915415     0.074423     0.049762
C      0.510959    -0.413772    -0.141462
O      1.450384     0.378498     0.534510
H     -1.077214     1.038441    -0.443831
H     -1.628757    -0.640141    -0.369512
H     -1.128090     0.197092     1.114149
H      0.751716    -0.473844    -1.209716
H      0.618617    -1.419070     0.267353
H      1.415182     1.260762     0.198786
9
Iteration 4, Energy=-154.0926020607, |grad|=0.003505
C     -0.915649     0.074017     0.049927
C      0.510903    -0.413924    -0.140941
O      1.450219     0.378258     0.534032
H     -1.075882     1.039084    -0.442352
H     -1.629015    -0.639789    -0.371098
H     -1.129088     0.196617     1.114106
H      0.750960    -0.474253    -1.208996
H      0.619730    -1.419347     0.267837
H      1.415203     1.261725     0.197526
9
Iteration 5, Energy=-154.0926088812, |grad|=0.004219
C     -0.915512     0.073469     0.050214
C      0.510931    -0.414150    -0.140429
O      1.450017     0.378602     0.533585
H     -1.074271     1.039440    -0.440430
H     -1.629142    -0.638795    -0.372867
H     -1.130580     0.195768     1.113889
H      0.749929    -0.474932    -1.208370
H      0.620917    -1.419166     0.268435
H      1.415092     1.262152     0.196012
9
Iteration 6, Energy=-154.0926303850, |grad|=0.005546
C     -0.915059     0.071583     0.051653
C      0.510973    -0.415069    -0.138366
O      1.449610     0.381095     0.532086
H     -1.067427     1.040938    -0.432541
H     -1.629399    -0.634069    -0.380347
H     -1.137196     0.191302     1.113367
H      0.745781    -0.478060    -1.206701
H      0.625711    -1.418502     0.271475
H      1.414388     1.263173     0.189414
9
Iteration 7, Energy=-154.0926507376, |grad|=0.006873
C     -0.914805     0.071092     0.053724
C      0.512388    -0.416481    -0.136034
O      1.448822     0.384330     0.529995
H     -1.060054     1.044335    -0.424970
H     -1.629234    -0.628125    -0.389314
H     -1.145206     0.183047     1.115117
H      0.742179    -0.481906    -1.205964
H      0.630064    -1.418002     0.276574
H      1.413228     1.264099     0.180911
9
Iteration 8, Energy=-154.0926538888, |grad|=0.011241
C     -0.913637     0.069398     0.056867
C      0.509985    -0.417182    -0.133950
O      1.449758     0.390417     0.526966
H     -1.049175     1.050458    -0.412983
H     -1.627760    -0.617665    -0.403169
H     -1.156874     0.167907     1.117346
H      0.738104    -0.488383    -1.203842
H      0.635885    -1.417803     0.285898
H      1.411096     1.265240     0.166906
9
Iteration 9, Energy=-154.0926757388, |grad|=0.003090
C     -0.914406     0.071154     0.056069
C      0.511399    -0.417609    -0.133732
O      1.449267     0.389485     0.526899
H     -1.052055     1.049240    -0.415603
H     -1.627540    -0.619391    -0.400190
H     -1.154001     0.169310     1.117217
H      0.739867    -0.487217    -1.204632
H      0.633424    -1.417084     0.284412
H      1.411425     1.264501     0.169599
9
Iteration 10, Energy=-154.0926805631, |grad|=0.002771
C     -0.914526     0.071769     0.055915
C      0.511575    -0.417437    -0.133763
O      1.449271     0.389560     0.526415
H     -1.052937     1.049578    -0.415850
H     -1.627262    -0.619456    -0.399974
H     -1.153146     0.168282     1.117302
H      0.740810    -0.487289    -1.204436
H      0.632184    -1.416832     0.284771
H      1.411413     1.264214     0.169661
9
Iteration 1, Energy=-154.0926571078, |grad|=0.012093
C     -0.913858     0.069498     0.057129
C      0.509648    -0.417319    -0.134326
O      1.450255     0.390846     0.527140
H     -1.049880     1.050774    -0.412470
H     -1.627117    -0.616484    -0.403676
H     -1.156899     0.166577     1.117466
H      0.740180    -0.489060    -1.204460
H      0.632461    -1.417772     0.286982
H      1.410476     1.264147     0.165961
9
Iteration 2, Energy=-154.0926783810, |grad|=0.003169
C     -0.914674     0.071775     0.055649
C      0.511732    -0.417482    -0.134031
O      1.449221     0.388965     0.526875
H     -1.053860     1.048705    -0.416968
H     -1.627447    -0.620202    -0.398611
H     -1.152212     0.169825     1.117268
H      0.741054    -0.486739    -1.204985
H      0.631803    -1.416959     0.284000
H      1.411495     1.264115     0.171034
9
Iteration -1, Energy=-154.0926805631, |grad|=0.002771
C     -0.914526     0.071769     0.055915
C      0.511575    -0.417437    -0.133763
O      1.449271     0.389560     0.526415
H     -1.052937     1.049578    -0.415850
H     -1.627262    -0.619456    -0.399974
H     -1.153146     0.168282     1.117302
H      0.740810    -0.487289    -1.204436
H      0.632184    -1.416832     0.284771
H      1.411413     1.264214     0.169661
9
Iteration 1, Energy=-154.0926846497, |grad|=0.004299
C     -0.914138     0.071321     0.055537
C      0.511411    -0.416798    -0.134003
O      1.449495     0.388978     0.526232
H     -1.053697     1.050174    -0.414928
H     -1.627390    -0.619765    -0.400441
H     -1.152216     0.167839     1.116815
H      0.741376    -0.487686    -1.203475
H      0.631051    -1.416488     0.285108
H      1.411490     1.264813     0.169195
9
Iteration 2, Energy=-154.0926894058, |grad|=0.003016
C     -0.914067     0.071233     0.055044
C      0.511348    -0.416660    -0.133956
O      1.449723     0.389306     0.525793
H     -1.054446     1.050606    -0.413953
H     -1.627411    -0.620025    -0.400882
H     -1.151292     0.167328     1.116410
H      0.742004    -0.488088    -1.202849
H      0.629885    -1.416023     0.285391
H      1.411639     1.264711     0.169041
9
Iteration 3, Energy=-154.0926961599, |grad|=0.002464
C     -0.914625     0.071617     0.053726
C      0.511500    -0.416322    -0.133657
O      1.450270     0.389811     0.524992
H     -1.056603     1.051698    -0.411233
H     -1.627108    -0.620534    -0.402103
H     -1.148773     0.165550     1.115562
H      0.744026    -0.489431    -1.202100
H      0.626618    -1.414921     0.286562
H      1.412076     1.264920     0.168292
9
Iteration 4, Energy=-154.0926988225, |grad|=0.003547
C     -0.914503     0.071719     0.053530
C      0.511198    -0.415812    -0.134464
O      1.450547     0.390698     0.524869
H     -1.058229     1.053001    -0.409925
H     -1.626701    -0.620619    -0.403029
H     -1.147557     0.163956     1.115574
H      0.745548    -0.490626    -1.202270
H      0.624622    -1.414644     0.287997
H      1.412458     1.264716     0.167758
9
Iteration 5, Energy=-154.0927012755, |grad|=0.001907
C     -0.914544     0.072048     0.053434
C      0.511372    -0.415933    -0.134529
O      1.450327     0.390616     0.524942
H     -1.058724     1.053336    -0.409619
H     -1.626424    -0.620452    -0.403287
H     -1.147423     0.163277     1.115887
H      0.746030    -0.491073    -1.202704
H      0.624142    -1.414368     0.288488
H      1.412627     1.264938     0.167427
9
Iteration 6, Energy=-154.0927032015, |grad|=0.001034
C     -0.914526     0.072548     0.053475
C      0.511626    -0.415942    -0.134905
O      1.449793     0.390594     0.525042
H     -1.059555     1.053968    -0.409161
H     -1.625842    -0.619933    -0.403748
H     -1.147390     0.161897     1.116457
H      0.746811    -0.491973    -1.203406
H      0.623476    -1.413903     0.289465
H      1.412989     1.265132     0.166821
9
Iteration 7, Energy=-154.0927038747, |grad|=0.000949
C     -0.914417     0.072684     0.053509
C      0.511533    -0.415853    -0.134982
O      1.449577     0.390660     0.524992
H     -1.059786     1.054147    -0.408854
H     -1.625623    -0.619543    -0.404002
H     -1.147505     0.161166     1.116534
H      0.747002    -0.492426    -1.203443
H      0.623392    -1.413544     0.289800
H      1.413209     1.265099     0.166485
9
Iteration 8, Energy=-154.0927054374, |grad|=0.001840
C     -0.914626     0.072886     0.053700
C      0.511663    -0.415490    -0.135152
O      1.449163     0.391135     0.524816
H     -1.060046     1.054877    -0.407550
H     -1.625221    -0.618159    -0.405266
H     -1.148264     0.158576     1.116611
H      0.747063    -0.493918    -1.203029
H      0.623544    -1.412507     0.290908
H      1.414105     1.264989     0.165001
9
Iteration 9, Energy=-154.0927071748, |grad|=0.001552
C     -0.914328     0.073027     0.053706
C      0.511184    -0.415118    -0.134628
O      1.449013     0.391838     0.524550
H     -1.060101     1.055715    -0.405831
H     -1.625196    -0.616853    -0.407034
H     -1.149315     0.155746     1.116720
H      0.747017    -0.495446    -1.202690
H      0.623921    -1.411489     0.292091
H      1.415187     1.264970     0.163155
9
Iteration 10, Energy=-154.0927090914, |grad|=0.001553
C     -0.914531     0.072882     0.053803
C      0.511101    -0.415050    -0.134157
O      1.449145     0.392527     0.524285
H     -1.059644     1.056356    -0.404329
H     -1.625422    -0.615997    -0.408631
H     -1.150387     0.153891     1.116633
H      0.746569    -0.496241    -1.202088
H      0.624487    -1.411063     0.292947
H      1.416064     1.265084     0.161578
9
Iteration 1, Energy=-154.0927035269, |grad|=0.006647
C     -0.914191     0.073593     0.053976
C      0.511530    -0.414801    -0.133427
O      1.448527     0.392693     0.523629
H     -1.059556     1.057691    -0.400574
H     -1.624966    -0.613883    -0.412580
H     -1.152087     0.148619     1.117378
H      0.746566    -0.498868    -1.202749
H      0.624423    -1.409452     0.295063
H      1.416590     1.265030     0.157624
9
Iteration 2, Energy=-154.0926864318, |grad|=0.010288
C     -0.915430     0.072151     0.054067
C      0.509375    -0.413881    -0.134995
O      1.448948     0.393429     0.524885
H     -1.061253     1.057692    -0.403985
H     -1.625793    -0.614777    -0.409212
H     -1.151328     0.150123     1.115574
H      0.746128    -0.497949    -1.198853
H      0.627164    -1.409562     0.294396
H      1.421317     1.265309     0.160094
9
Iteration -1, Energy=-154.0927090914, |grad|=0.001553
C     -0.914531     0.072882     0.053803
C      0.511101    -0.415050    -0.134157
O      1.449145     0.392527     0.524285
H     -1.059644     1.056356    -0.404329
H     -1.625422    -0.615997    -0.408631
H     -1.150387     0.153891     1.116633
H      0.746569    -0.496241    -1.202088
H      0.624487    -1.411063     0.292947
H      1.416064     1.265084     0.161578
9
Iteration 1, Energy=-154.0927103685, |grad|=0.002016
C     -0.915310     0.072590     0.053780
C      0.511713    -0.415412    -0.134102
O      1.449362     0.392736     0.524112
H     -1.059160     1.056563    -0.403710
H     -1.625529    -0.616331    -0.409177
H     -1.150622     0.154288     1.116643
H      0.746418    -0.495655    -1.202015
H      0.624346    -1.411830     0.293349
H      1.416163     1.265440     0.161159
9
Iteration 2, Energy=-154.0927112893, |grad|=0.000854
C     -0.915072     0.072420     0.053784
C      0.511461    -0.415551    -0.133838
O      1.449505     0.392987     0.523967
H     -1.058904     1.056655    -0.403359
H     -1.625703    -0.616566    -0.409551
H     -1.150846     0.154460     1.116662
H      0.746391    -0.495364    -1.202059
H      0.624339    -1.412114     0.293499
H      1.416212     1.265462     0.160934
9
Iteration 3, Energy=-154.0927116014, |grad|=0.000791
C     -0.914959     0.072275     0.053828
C      0.511340    -0.415596    -0.133706
O      1.449524     0.392974     0.523892
H     -1.058665     1.056660    -0.403073
H     -1.625726    -0.616618    -0.409791
H     -1.151065     0.154528     1.116618
H      0.746331    -0.495179    -1.201961
H      0.624377    -1.412202     0.293577
H      1.416226     1.265546     0.160656
9
Iteration 4, Energy=-154.0927120663, |grad|=0.000922
C     -0.914882     0.072028     0.053930
C      0.511209    -0.415704    -0.133490
O      1.449501     0.393123     0.523687
H     -1.058143     1.056612    -0.402499
H     -1.625652    -0.616589    -0.410226
H     -1.151555     0.154571     1.116513
H      0.746166    -0.494861    -1.201688
H      0.624489    -1.412264     0.293692
H      1.416251     1.265473     0.160121
9
Iteration 5, Energy=-154.0927127707, |grad|=0.001188
C     -0.914868     0.071808     0.054157
C      0.511124    -0.415657    -0.133076
O      1.449381     0.393213     0.523584
H     -1.057225     1.056557    -0.401671
H     -1.625397    -0.616322    -0.410930
H     -1.152533     0.154289     1.116482
H      0.745813    -0.494580    -1.201353
H      0.624843    -1.412245     0.293859
H      1.416245     1.265327     0.158988
9
Iteration 6, Energy=-154.0927136437, |grad|=0.001040
C     -0.914908     0.071550     0.054701
C      0.511085    -0.415785    -0.132696
O      1.449234     0.393686     0.523576
H     -1.055931     1.056739    -0.400638
H     -1.624976    -0.615798    -0.412018
H     -1.154072     0.153558     1.116539
H      0.745210    -0.494343    -1.200812
H      0.625452    -1.412134     0.294122
H      1.416288     1.264915     0.157265
9
Iteration 7, Energy=-154.0927143222, |grad|=0.001164
C     -0.915053     0.071581     0.054904
C      0.511224    -0.415789    -0.131995
O      1.448932     0.394189     0.523577
H     -1.054833     1.057047    -0.399735
H     -1.624551    -0.615091    -0.413079
H     -1.155586     0.152411     1.116925
H      0.744628    -0.494394    -1.200547
H      0.626154    -1.412114     0.294463
H      1.416467     1.264549     0.155526
9
Iteration 8, Energy=-154.0927148860, |grad|=0.000764
C     -0.915124     0.071724     0.055237
C      0.511266    -0.415726    -0.131918
O      1.448816     0.394474     0.523752
H     -1.054555     1.057425    -0.399503
H     -1.624423    -0.614659    -0.413608
H     -1.156180     0.151522     1.117063
H      0.744378    -0.494690    -1.200427
H      0.626535    -1.412167     0.294743
H      1.416668     1.264485     0.154702
9
Iteration 9, Energy=-154.0927153454, |grad|=0.000751
C     -0.915191     0.071855     0.055314
C      0.511245    -0.415851    -0.131817
O      1.448754     0.394791     0.523856
H     -1.054607     1.057854    -0.399292
H     -1.624423    -0.614245    -0.414057
H     -1.156454     0.150631     1.117205
H      0.744278    -0.495084    -1.200366
H      0.626763    -1.412163     0.295056
H      1.417017     1.264600     0.154142
9
Iteration 10, Energy=-154.0927160238, |grad|=0.001119
C     -0.915263     0.071933     0.055363
C      0.511215    -0.415729    -0.131587
O      1.448543     0.395441     0.523718
H     -1.054632     1.058534    -0.398382
H     -1.624562    -0.613473    -0.415184
H     -1.156979     0.148961     1.117301
H      0.744151    -0.495801    -1.200058
H      0.627089    -1.412218     0.295885
H      1.417821     1.264741     0.152985
9
Iteration 1, Energy=-154.0927070040, |grad|=0.004456
C     -0.915300     0.070044     0.055599
C      0.510984    -0.415996    -0.130373
O      1.449876     0.395978     0.521824
H     -1.052103     1.057717    -0.392923
H     -1.624249    -0.614258    -0.419193
H     -1.160111     0.149815     1.116446
H      0.743642    -0.494583    -1.199344
H      0.627370    -1.410205     0.297123
H      1.417637     1.264487     0.148961
9
Iteration 2, Energy=-154.0927076827, |grad|=0.004012
C     -0.915657     0.071923     0.056523
C      0.511260    -0.416129    -0.130169
O      1.447604     0.396529     0.524529
H     -1.050738     1.059391    -0.398414
H     -1.623984    -0.612313    -0.415939
H     -1.160541     0.147721     1.117900
H      0.741944    -0.494731    -1.198832
H      0.628995    -1.414357     0.295899
H      1.418041     1.264325     0.150334
9
Iteration -1, Energy=-154.0927160238, |grad|=0.001119
C     -0.915263     0.071933     0.055363
C      0.511215    -0.415729    -0.131587
O      1.448543     0.395441     0.523718
H     -1.054632     1.058534    -0.398382
H     -1.624562    -0.613473    -0.415184
H     -1.156979     0.148961     1.117301
H      0.744151    -0.495801    -1.200058
H      0.627089    -1.412218     0.295885
H      1.417821     1.264741     0.152985
9
Iteration 1, Energy=-154.0927163532, |grad|=0.000877
C     -0.915275     0.071859     0.055200
C      0.511160    -0.415882    -0.131443
O      1.448557     0.395321     0.523651
H     -1.054673     1.058428    -0.398133
H     -1.624583    -0.613444    -0.415240
H     -1.156911     0.148982     1.117231
H      0.744247    -0.495813    -1.200047
H      0.626974    -1.411927     0.295883
H      1.417886     1.264865     0.152938
9
Iteration 2, Energy=-154.0927165795, |grad|=0.000679
C     -0.915275     0.071757     0.055161
C      0.511113    -0.415848    -0.131493
O      1.448581     0.395341     0.523562
H     -1.054715     1.058376    -0.397918
H     -1.624631    -0.613440    -0.415321
H     -1.156844     0.148990     1.117128
H      0.744333    -0.495845    -1.199980
H      0.626867    -1.411791     0.295961
H      1.417952     1.264848     0.152939
9
Iteration 3, Energy=-154.0927169155, |grad|=0.001034
C     -0.915334     0.071463     0.055023
C      0.511096    -0.415533    -0.131705
O      1.448645     0.395237     0.523300
H     -1.054938     1.058305    -0.397063
H     -1.624887    -0.613492    -0.415737
H     -1.156574     0.148899     1.116827
H      0.744718    -0.496052    -1.199844
H      0.626414    -1.411415     0.296422
H      1.418243     1.264977     0.152817
9
Iteration 4, Energy=-154.0927170920, |grad|=0.000868
C     -0.915402     0.071413     0.054920
C      0.511093    -0.415618    -0.131732
O      1.448717     0.395522     0.523159
H     -1.055101     1.058420    -0.396729
H     -1.624981    -0.613516    -0.415950
H     -1.156472     0.148735     1.116818
H      0.744918    -0.496192    -1.199907
H      0.626188    -1.411236     0.296646
H      1.418421     1.264863     0.152814
9
Iteration 5, Energy=-154.0927172054, |grad|=0.000524
C     -0.915413     0.071456     0.054936
C      0.511116    -0.415624    -0.131738
O      1.448713     0.395495     0.523217
H     -1.055123     1.058500    -0.396792
H     -1.624960    -0.613509    -0.415949
H     -1.156493     0.148664     1.116875
H      0.744912    -0.496220    -1.199945
H      0.626208    -1.411292     0.296667
H      1.418423     1.264918     0.152769
9
Iteration 6, Energy=-154.0927174047, |grad|=0.000394
C     -0.915476     0.071532     0.054900
C      0.511161    -0.415619    -0.131793
O      1.448723     0.395530     0.523256
H     -1.055326     1.058781    -0.396642
H     -1.624964    -0.613475    -0.416126
H     -1.156462     0.148303     1.116972
H      0.745068    -0.496434    -1.200040
H      0.626075    -1.411280     0.296924
H      1.418584     1.265051     0.152588
9
Iteration 7, Energy=-154.0927175638, |grad|=0.000522
C     -0.915527     0.071609     0.054831
C      0.511172    -0.415582    -0.131841
O      1.448705     0.395623     0.523209
H     -1.055592     1.059057    -0.396333
H     -1.624952    -0.613379    -0.416370
H     -1.156404     0.147814     1.117005
H      0.745286    -0.496729    -1.200074
H      0.625875    -1.411161     0.297248
H      1.418820     1.265137     0.152365
9
Iteration 8, Energy=-154.0927178563, |grad|=0.000513
C     -0.915533     0.071764     0.054751
C      0.511110    -0.415456    -0.131865
O      1.448615     0.395846     0.523111
H     -1.056051     1.059533    -0.395725
H     -1.624776    -0.612992    -0.416840
H     -1.156405     0.146689     1.116977
H      0.745580    -0.497362    -1.199919
H      0.625579    -1.410816     0.297758
H      1.419261     1.265184     0.151792
9
Iteration 9, Energy=-154.0927179741, |grad|=0.000766
C     -0.915541     0.071947     0.054704
C      0.511162    -0.415284    -0.131697
O      1.448560     0.396031     0.523033
H     -1.056155     1.059712    -0.395198
H     -1.624714    -0.612776    -0.417327
H     -1.156565     0.145980     1.117009
H      0.745641    -0.497706    -1.199823
H      0.625465    -1.410659     0.298079
H      1.419528     1.265144     0.151260
9
Iteration 10, Energy=-154.0927181647, |grad|=0.000463
C     -0.915556     0.071914     0.054708
C      0.511113    -0.415205    -0.131620
O      1.448547     0.396270     0.522952
H     -1.056283     1.059970    -0.394624
H     -1.624577    -0.612456    -0.417814
H     -1.156723     0.145236     1.116950
H      0.745712    -0.498067    -1.199604
H      0.625321    -1.410363     0.298398
H      1.419827     1.265088     0.150694
9
Iteration 1, Energy=-154.0927093484, |grad|=0.004313
C     -0.916057     0.069974     0.055885
C      0.511111    -0.416628    -0.131364
O      1.448408     0.396674     0.523198
H     -1.050851     1.058606    -0.391778
H     -1.625871    -0.612227    -0.419961
H     -1.157498     0.145669     1.117210
H      0.743037    -0.494177    -1.199698
H      0.629115    -1.412379     0.299956
H      1.420875     1.264969     0.149542
9
Iteration 2, Energy=-154.0927175363, |grad|=0.001613
C     -0.915533     0.072089     0.055119
C      0.511085    -0.415065    -0.130736
O      1.448227     0.396841     0.522964
H     -1.055588     1.060412    -0.394271
H     -1.623893    -0.611712    -0.418811
H     -1.159539     0.144752     1.117140
H      0.745220    -0.498630    -1.198863
H      0.625773    -1.410105     0.297954
H      1.419328     1.264714     0.148449
9
Iteration -1, Energy=-154.0927181647, |grad|=0.000463
C     -0.915556     0.071914     0.054708
C      0.511113    -0.415205    -0.131620
O      1.448547     0.396270     0.522952
H     -1.056283     1.059970    -0.394624
H     -1.624577    -0.612456    -0.417814
H     -1.156723     0.145236     1.116950
H      0.745712    -0.498067    -1.199604
H      0.625321    -1.410363     0.298398
H      1.419827     1.265088     0.150694
9
Iteration 1, Energy=-154.0927182240, |grad|=0.000493
C     -0.915569     0.071745     0.054779
C      0.511051    -0.415305    -0.131679
O      1.448592     0.396332     0.522964
H     -1.056197     1.060026    -0.394589
H     -1.624547    -0.612426    -0.417871
H     -1.156810     0.145281     1.116935
H      0.745664    -0.497994    -1.199538
H      0.625360    -1.410352     0.298413
H      1.419838     1.265081     0.150627
9
Iteration 2, Energy=-154.0927182759, |grad|=0.000361
C     -0.915570     0.071743     0.054781
C      0.511054    -0.415312    -0.131640
O      1.448578     0.396317     0.522950
H     -1.056134     1.060000    -0.394542
H     -1.624550    -0.612430    -0.417917
H     -1.156868     0.145297     1.116944
H      0.745636    -0.497955    -1.199533
H      0.625392    -1.410366     0.298424
H      1.419844     1.265094     0.150574
9
Iteration 3, Energy=-154.0927184684, |grad|=0.000371
C     -0.915599     0.071643     0.054861
C      0.511048    -0.415382    -0.131431
O      1.448514     0.396359     0.522840
H     -1.055662     1.059867    -0.394215
H     -1.624555    -0.612427    -0.418256
H     -1.157305     0.145405     1.116978
H      0.745417    -0.497670    -1.199462
H      0.625635    -1.410483     0.298511
H      1.419891     1.265076     0.150214
9
Iteration 4, Energy=-154.0927185547, |grad|=0.000416
C     -0.915653     0.071527     0.054988
C      0.511051    -0.415384    -0.131319
O      1.448495     0.396419     0.522828
H     -1.055312     1.059850    -0.394027
H     -1.624528    -0.612369    -0.418491
H     -1.157658     0.145400     1.116984
H      0.745223    -0.497512    -1.199392
H      0.625845    -1.410582     0.298573
H      1.419919     1.265040     0.149896
9
Iteration 5, Energy=-154.0927186091, |grad|=0.000623
C     -0.915682     0.071421     0.055147
C      0.511018    -0.415546    -0.131035
O      1.448476     0.396701     0.522822
H     -1.054699     1.059850    -0.393705
H     -1.624467    -0.612217    -0.418912
H     -1.158352     0.145255     1.117061
H      0.744847    -0.497289    -1.199266
H      0.626252    -1.410652     0.298622
H      1.419990     1.264866     0.149305
9
Iteration 6, Energy=-154.0927186856, |grad|=0.000230
C     -0.915676     0.071419     0.055177
C      0.511028    -0.415481    -0.131086
O      1.448472     0.396662     0.522882
H     -1.054751     1.059921    -0.393762
H     -1.624445    -0.612166    -0.418878
H     -1.158341     0.145154     1.117050
H      0.744846    -0.497366    -1.199236
H      0.626256    -1.410649     0.298622
H      1.419992     1.264896     0.149271
9
Iteration 7, Energy=-154.0927187248, |grad|=0.000229
C     -0.915665     0.071460     0.055197
C      0.511041    -0.415436    -0.131081
O      1.448453     0.396681     0.522931
H     -1.054777     1.059993    -0.393794
H     -1.624417    -0.612085    -0.418873
H     -1.158382     0.144985     1.117055
H      0.744824    -0.497461    -1.199204
H      0.626292    -1.410632     0.298617
H      1.420011     1.264883     0.149191
