14
molecule_CCCC
C     -1.686467     0.796019     0.221292
C     -0.448841    -0.884464    -1.026243
C      0.285119    -0.299615     0.220484
C      1.644753     0.138382     0.835019
H     -0.749665     0.586353     0.520823
H     -2.727729    -0.431009     0.472693
H     -2.135836     0.833092    -0.613337
H     -0.728256    -0.426028    -1.854647
H     -1.031056    -1.277068    -1.016394
H      0.429152    -0.961543     0.674422
H      1.500514    -1.754698    -0.758970
H      2.933987     0.834892     0.969538
H      0.802516     0.816640     1.372588
H      1.509952     0.855951    -0.574475