14
molecule_CCCC_best_lbfgs
C     -3.427585     0.854704     0.021150
C      0.323609    -0.968713    -0.862522
C      0.641801    -0.365224     0.503177
C      1.911654     0.481788     0.500252
H     -0.202935     0.246368     0.832541
H     -4.119561     0.083330     0.409767
H     -3.720516     0.934282    -1.043121
H      0.172968    -0.187053    -1.612746
H     -0.584815    -1.576066    -0.826520
H      0.745625    -1.169824     1.238656
H      1.136645    -1.611373    -1.212762
H      2.783574    -0.112314     0.210931
H      2.108833     0.903208     1.488829
H      1.828843     1.313794    -0.204837