9
Iteration -1, Energy=-154.0837996503, |grad|=0.044117
C     -0.977020     0.054531     0.039344
C      0.487693    -0.332548    -0.192952
O      1.302254     0.336299     0.743792
H     -1.353582     0.729531    -0.729129
H     -1.591671    -0.850511     0.025441
H     -1.069217     0.581118     0.999619
H      0.788253    -0.138478    -1.230198
H      0.594696    -1.412625    -0.042175
H      1.818594     1.032682     0.386258
9
Iteration 0, Energy=-154.0843833249, |grad|=0.059413
C     -0.977280     0.053879     0.035312
C      0.484312    -0.325026    -0.187773
O      1.305233     0.320355     0.751886
H     -1.354690     0.731318    -0.731808
H     -1.597106    -0.844075     0.028915
H     -1.069673     0.569254     0.994917
H      0.790027    -0.136048    -1.225589
H      0.600639    -1.406722    -0.038040
H      1.818537     1.037066     0.372179
9
Iteration 1, Energy=-154.0849708820, |grad|=0.035094
C     -0.978177     0.054365     0.032267
C      0.483032    -0.324225    -0.185418
O      1.313796     0.319380     0.752837
H     -1.355398     0.732475    -0.733440
H     -1.600947    -0.840538     0.030813
H     -1.070298     0.562238     0.992956
H      0.791269    -0.133974    -1.221992
H      0.603824    -1.402234    -0.035695
H      1.812900     1.032512     0.367673
9
Iteration 2, Energy=-154.0855525641, |grad|=0.015882
C     -0.980572     0.055962     0.025149
C      0.485382    -0.322798    -0.179253
O      1.331056     0.312521     0.753421
H     -1.357325     0.736354    -0.738314
H     -1.612045    -0.832437     0.034509
H     -1.072982     0.545639     0.990668
H      0.794820    -0.127776    -1.211446
H      0.611494    -1.392164    -0.028851
H      1.800172     1.024698     0.354117
9
Iteration 3, Energy=-154.0857041185, |grad|=0.012918
C     -0.979866     0.055951     0.024226
C      0.487718    -0.323802    -0.177507
O      1.336536     0.309057     0.751367
H     -1.357812     0.739262    -0.740843
H     -1.617745    -0.830150     0.033355
H     -1.075975     0.541528     0.993742
H      0.798074    -0.123818    -1.206927
H      0.613990    -1.392890    -0.024920
H      1.795081     1.024862     0.347508
9
Iteration 4, Energy=-154.0858879114, |grad|=0.019755
C     -0.984349     0.059975     0.025899
C      0.492191    -0.332712    -0.172545
O      1.350274     0.301923     0.745186
H     -1.353411     0.743306    -0.740109
H     -1.629306    -0.822421     0.024813
H     -1.085134     0.532524     1.000771
H      0.809041    -0.114233    -1.198539
H      0.618760    -1.399964    -0.015309
H      1.781934     1.031603     0.329834
9
Iteration 0, Energy=-154.0378396116, |grad|=0.558825
C     -0.905691     0.116632     0.039997
C      0.578310    -0.366860    -0.179545
O      1.268780     0.271992     0.679680
H     -1.368089     0.650752    -0.829576
H     -1.586276    -0.793072     0.082127
H     -1.142159     0.512822     0.921933
H      0.749537    -0.122233    -1.212013
H      0.669900    -1.370585     0.010389
H      1.871588     1.014980     0.469821
9
Iteration -1, Energy=-154.0858879114, |grad|=0.019755
C     -0.984349     0.059975     0.025899
C      0.492191    -0.332712    -0.172545
O      1.350274     0.301923     0.745186
H     -1.353411     0.743306    -0.740109
H     -1.629306    -0.822421     0.024813
H     -1.085134     0.532524     1.000771
H      0.809041    -0.114233    -1.198539
H      0.618760    -1.399964    -0.015309
H      1.781934     1.031603     0.329834
9
Iteration 0, Energy=-154.0859565451, |grad|=0.009760
C     -0.981954     0.057697     0.026682
C      0.490914    -0.330743    -0.173223
O      1.350611     0.302731     0.744626
H     -1.352888     0.744321    -0.739948
H     -1.629267    -0.822193     0.023716
H     -1.085654     0.533271     1.001545
H      0.808783    -0.115457    -1.198207
H      0.618427    -1.401522    -0.015309
H      1.781028     1.031895     0.330117
9
Iteration 1, Energy=-154.0859975546, |grad|=0.009758
C     -0.979824     0.056415     0.027604
C      0.490388    -0.330369    -0.173284
O      1.350379     0.303304     0.743840
H     -1.351326     0.745188    -0.738538
H     -1.629111    -0.822165     0.021705
H     -1.086398     0.534042     1.002367
H      0.808331    -0.117405    -1.198184
H      0.617654    -1.402515    -0.015595
H      1.779906     1.033506     0.330084
9
Iteration 2, Energy=-154.0860846868, |grad|=0.014129
C     -0.976153     0.054511     0.030372
C      0.490270    -0.331176    -0.173151
O      1.350274     0.305554     0.741346
H     -1.345762     0.747466    -0.733449
H     -1.628222    -0.821957     0.015372
H     -1.088386     0.535496     1.004344
H      0.806840    -0.123462    -1.198516
H      0.615292    -1.404803    -0.016344
H      1.775846     1.038371     0.330025
9
Iteration 3, Energy=-154.0861938558, |grad|=0.019303
C     -0.972940     0.053201     0.034639
C      0.490891    -0.333048    -0.171924
O      1.350322     0.306741     0.738365
H     -1.335240     0.752593    -0.724820
H     -1.626393    -0.821279     0.004225
H     -1.091206     0.535669     1.007862
H      0.804117    -0.134328    -1.200232
H      0.612077    -1.408864    -0.016150
H      1.768372     1.049314     0.328034
9
Iteration 4, Energy=-154.0863281009, |grad|=0.019805
C     -0.969211     0.053445     0.040207
C      0.491693    -0.339449    -0.169597
O      1.355035     0.312665     0.731446
H     -1.317962     0.762525    -0.711517
H     -1.623841    -0.820179    -0.013760
H     -1.095249     0.533216     1.014150
H      0.799524    -0.151887    -1.203281
H      0.607655    -1.413863    -0.014183
H      1.752356     1.063527     0.326535
9
Iteration 0, Energy=-154.0233734980, |grad|=0.535829
C     -1.005000     0.094681     0.010639
C      0.388172    -0.221760    -0.105019
O      1.307628     0.298878     0.653335
H     -1.328726     0.667583    -0.748664
H     -1.671809    -0.808737     0.107523
H     -1.040348     0.519658     0.987509
H      0.860095    -0.209912    -1.318353
H      0.613456    -1.345846     0.026039
H      1.879443     0.948677     0.384185
9
Iteration -1, Energy=-154.0863281009, |grad|=0.019805
C     -0.969211     0.053445     0.040207
C      0.491693    -0.339449    -0.169597
O      1.355035     0.312665     0.731446
H     -1.317962     0.762525    -0.711517
H     -1.623841    -0.820179    -0.013760
H     -1.095249     0.533216     1.014150
H      0.799524    -0.151887    -1.203281
H      0.607655    -1.413863    -0.014183
H      1.752356     1.063527     0.326535
9
Iteration 0, Energy=-154.0864181960, |grad|=0.026360
C     -0.973739     0.056865     0.038188
C      0.494543    -0.340611    -0.168995
O      1.355158     0.306477     0.732479
H     -1.317796     0.765164    -0.713003
H     -1.624087    -0.818925    -0.013094
H     -1.093940     0.527729     1.014485
H      0.798953    -0.151692    -1.203085
H      0.609709    -1.412197    -0.010183
H      1.751199     1.067189     0.323207
9
Iteration 1, Energy=-154.0865155175, |grad|=0.015555
C     -0.973881     0.057293     0.037266
C      0.493912    -0.340773    -0.168957
O      1.357492     0.307167     0.731519
H     -1.317993     0.766916    -0.714035
H     -1.624502    -0.818362    -0.012978
H     -1.093511     0.525440     1.015058
H      0.798879    -0.151702    -1.203036
H      0.610589    -1.411990    -0.008274
H      1.749015     1.066010     0.323436
9
Iteration 2, Energy=-154.0866646141, |grad|=0.011495
C     -0.974536     0.059362     0.033651
C      0.492651    -0.340910    -0.168521
O      1.364038     0.305325     0.729015
H     -1.318572     0.773902    -0.717738
H     -1.626277    -0.815959    -0.012843
H     -1.091780     0.515979     1.017321
H      0.798483    -0.152027    -1.202738
H      0.614096    -1.411021    -0.000242
H      1.741897     1.065348     0.322096
9
Iteration 3, Energy=-154.0867353348, |grad|=0.010806
C     -0.973285     0.060468     0.031431
C      0.492074    -0.341193    -0.168263
O      1.367653     0.302363     0.726813
H     -1.318528     0.779122    -0.719068
H     -1.628001    -0.813683    -0.014200
H     -1.090764     0.508984     1.019219
H      0.798318    -0.153245    -1.202371
H      0.615989    -1.410325     0.006137
H      1.736543     1.067510     0.320302
9
Iteration 4, Energy=-154.0868700267, |grad|=0.014273
C     -0.972566     0.063465     0.028121
C      0.494287    -0.344635    -0.168175
O      1.375511     0.297910     0.719619
H     -1.315762     0.789286    -0.716611
H     -1.631209    -0.806684    -0.021327
H     -1.088682     0.493734     1.023014
H      0.798302    -0.158928    -1.201944
H      0.617708    -1.408978     0.020301
H      1.722409     1.074830     0.317002
9
Iteration 0, Energy=-154.0288861050, |grad|=0.567559
C     -0.907581     0.011799    -0.027202
C      0.418050    -0.263270    -0.136140
O      1.282953     0.246014     0.803195
H     -1.290575     0.717597    -0.688289
H     -1.640572    -0.887628    -0.030312
H     -1.031837     0.540945     0.989974
H      0.697730    -0.232129    -1.238661
H      0.530638    -1.338504    -0.114784
H      1.787625     1.069062     0.348033
9
Iteration -1, Energy=-154.0868700267, |grad|=0.014273
C     -0.972566     0.063465     0.028121
C      0.494287    -0.344635    -0.168175
O      1.375511     0.297910     0.719619
H     -1.315762     0.789286    -0.716611
H     -1.631209    -0.806684    -0.021327
H     -1.088682     0.493734     1.023014
H      0.798302    -0.158928    -1.201944
H      0.617708    -1.408978     0.020301
H      1.722409     1.074830     0.317002
9
Iteration 0, Energy=-154.0869499029, |grad|=0.023998
C     -0.968993     0.061177     0.031068
C      0.493342    -0.343214    -0.168027
O      1.373605     0.296820     0.719891
H     -1.313116     0.789536    -0.711749
H     -1.631514    -0.806235    -0.026696
H     -1.089309     0.495670     1.023827
H      0.799216    -0.163435    -1.203842
H      0.615076    -1.412188     0.019855
H      1.721693     1.081869     0.315673
9
Iteration 1, Energy=-154.0870470516, |grad|=0.014857
C     -0.968112     0.060579     0.032380
C      0.493525    -0.344457    -0.168165
O      1.374200     0.299612     0.718543
H     -1.311215     0.789670    -0.708464
H     -1.631466    -0.805879    -0.030021
H     -1.089599     0.496555     1.024486
H      0.799602    -0.166283    -1.204701
H      0.613318    -1.413178     0.019466
H      1.719746     1.083381     0.316477
9
Iteration 2, Energy=-154.0871875099, |grad|=0.010650
C     -0.966246     0.059010     0.036431
C      0.495713    -0.348312    -0.168611
O      1.374861     0.305733     0.714565
H     -1.304411     0.791170    -0.697606
H     -1.631097    -0.804536    -0.041338
H     -1.090355     0.498555     1.027139
H      0.800426    -0.176559    -1.207021
H      0.607806    -1.416164     0.018845
H      1.713302     1.091103     0.317597
9
Iteration 3, Energy=-154.0872659718, |grad|=0.012421
C     -0.965389     0.058629     0.037743
C      0.496659    -0.349725    -0.168514
O      1.375982     0.307265     0.711926
H     -1.300358     0.795071    -0.693142
H     -1.630832    -0.803715    -0.047396
H     -1.090306     0.497026     1.029523
H      0.800216    -0.183171    -1.207667
H      0.606159    -1.417517     0.020266
H      1.707869     1.096137     0.317261
9
Iteration 4, Energy=-154.0879345582, |grad|=0.032345
C     -0.954722     0.062880     0.046477
C      0.500140    -0.367773    -0.163690
O      1.393081     0.317854     0.683295
H     -1.255817     0.842707    -0.647501
H     -1.628484    -0.793125    -0.110495
H     -1.088388     0.468120     1.054424
H      0.796905    -0.253316    -1.216482
H      0.594281    -1.429024     0.043693
H      1.643003     1.151677     0.310279
9
Iteration 0, Energy=-153.9790646571, |grad|=0.809040
C     -0.865664     0.123479     0.110167
C      0.398538    -0.232113    -0.272830
O      1.218182     0.382065     0.820558
H     -1.368101     0.703938    -0.657613
H     -1.541745    -0.798655     0.079909
H     -0.980779     0.499454     0.949714
H      0.817278    -0.212414    -1.161160
H      0.598933    -1.456857    -0.062353
H      1.882569     1.146850     0.436147
9
Iteration -1, Energy=-154.0879345582, |grad|=0.032345
C     -0.954722     0.062880     0.046477
C      0.500140    -0.367773    -0.163690
O      1.393081     0.317854     0.683295
H     -1.255817     0.842707    -0.647501
H     -1.628484    -0.793125    -0.110495
H     -1.088388     0.468120     1.054424
H      0.796905    -0.253316    -1.216482
H      0.594281    -1.429024     0.043693
H      1.643003     1.151677     0.310279
9
Iteration 0, Energy=-154.0882287152, |grad|=0.026992
C     -0.955042     0.058919     0.044642
C      0.499888    -0.360733    -0.166618
O      1.394771     0.314746     0.681468
H     -1.256325     0.846982    -0.650912
H     -1.626830    -0.787294    -0.108110
H     -1.088065     0.461721     1.053907
H      0.794944    -0.252255    -1.213839
H      0.597679    -1.430832     0.050250
H      1.638980     1.148746     0.309212
9
Iteration 1, Energy=-154.0884518122, |grad|=0.021363
C     -0.954425     0.061247     0.041988
C      0.499606    -0.361499    -0.166045
O      1.396366     0.312239     0.679577
H     -1.256471     0.849500    -0.652612
H     -1.626912    -0.784205    -0.106511
H     -1.087699     0.455006     1.053214
H      0.793591    -0.250600    -1.213385
H      0.600617    -1.428630     0.055618
H      1.635327     1.146943     0.308156
9
Iteration 2, Energy=-154.0886885192, |grad|=0.037733
C     -0.949261     0.069988     0.034862
C      0.499791    -0.367100    -0.167530
O      1.405068     0.299324     0.676932
H     -1.255072     0.863129    -0.658373
H     -1.632055    -0.775026    -0.106852
H     -1.086270     0.429078     1.055204
H      0.788476    -0.247342    -1.214059
H      0.609943    -1.421958     0.079466
H      1.619380     1.149906     0.300350
9
Iteration 3, Energy=-154.0888259896, |grad|=0.025512
C     -0.950662     0.071295     0.032129
C      0.500717    -0.369413    -0.164719
O      1.409283     0.305612     0.670332
H     -1.253285     0.865990    -0.657554
H     -1.632507    -0.771148    -0.108567
H     -1.085546     0.422696     1.056323
H      0.787878    -0.247726    -1.215650
H      0.611295    -1.421020     0.085080
H      1.612826     1.143714     0.302626
9
Iteration 4, Energy=-154.0889089519, |grad|=0.010397
C     -0.951083     0.069786     0.034125
C      0.501060    -0.368089    -0.164991
O      1.407199     0.304803     0.671862
H     -1.252947     0.864174    -0.656014
H     -1.632240    -0.772877    -0.109783
H     -1.085762     0.426912     1.056371
H      0.788738    -0.249177    -1.215591
H      0.609459    -1.422589     0.081614
H      1.615575     1.147057     0.302407
9
Iteration 0, Energy=-154.0026241341, |grad|=0.940170
C     -0.987446    -0.002233     0.093549
C      0.516310    -0.296105    -0.092500
O      1.207489     0.302553     0.653548
H     -1.265485     0.732010    -0.699740
H     -1.544483    -0.955039    -0.006425
H     -1.127640     0.574493     1.083158
H      0.740205    -0.172148    -1.320418
H      0.546382    -1.437068     0.011177
H      1.765924     1.139959     0.428676
9
Iteration -1, Energy=-154.0889089519, |grad|=0.010397
C     -0.951083     0.069786     0.034125
C      0.501060    -0.368089    -0.164991
O      1.407199     0.304803     0.671862
H     -1.252947     0.864174    -0.656014
H     -1.632240    -0.772877    -0.109783
H     -1.085762     0.426912     1.056371
H      0.788738    -0.249177    -1.215591
H      0.609459    -1.422589     0.081614
H      1.615575     1.147057     0.302407
9
Iteration 0, Energy=-154.0889789616, |grad|=0.022953
C     -0.951175     0.067619     0.036628
C      0.501645    -0.366182    -0.164979
O      1.406460     0.303759     0.668775
H     -1.248757     0.865263    -0.650395
H     -1.632442    -0.770739    -0.116483
H     -1.085485     0.426264     1.057394
H      0.789216    -0.255176    -1.215097
H      0.607631    -1.425150     0.082848
H      1.612908     1.154341     0.301308
9
Iteration 1, Energy=-154.0890799686, |grad|=0.016298
C     -0.950622     0.066903     0.037904
C      0.501357    -0.367366    -0.164720
O      1.407400     0.306531     0.665806
H     -1.245694     0.866364    -0.646220
H     -1.632887    -0.769578    -0.121505
H     -1.085383     0.425494     1.058562
H      0.789533    -0.259518    -1.215138
H      0.606237    -1.425909     0.083631
H      1.610058     1.157079     0.301681
9
Iteration 2, Energy=-154.0893279354, |grad|=0.015040
C     -0.946837     0.064367     0.042812
C      0.500718    -0.374148    -0.163542
O      1.411823     0.316111     0.653885
H     -1.231153     0.874117    -0.627317
H     -1.635413    -0.764325    -0.145274
H     -1.085197     0.419944     1.065353
H      0.790083    -0.280588    -1.215930
H      0.600491    -1.428371     0.088836
H      1.595486     1.172894     0.301179
9
Iteration 3, Energy=-154.0895194540, |grad|=0.020307
C     -0.944589     0.062727     0.044954
C      0.502229    -0.376885    -0.163430
O      1.416292     0.321893     0.645716
H     -1.220267     0.884667    -0.615524
H     -1.636463    -0.758938    -0.161663
H     -1.085310     0.411287     1.071139
H      0.788550    -0.296744    -1.217055
H      0.598500    -1.430909     0.096498
H      1.581058     1.182902     0.299365
9
Iteration 4, Energy=-154.0902686462, |grad|=0.035122
C     -0.930943     0.062666     0.052642
C      0.510630    -0.396736    -0.158150
O      1.440755     0.346467     0.600617
H     -1.159279     0.946921    -0.550861
H     -1.641367    -0.727735    -0.250054
H     -1.086309     0.353872     1.101761
H      0.778113    -0.385076    -1.225996
H      0.592104    -1.440291     0.144449
H      1.496295     1.239912     0.285592
9
Iteration 0, Energy=-154.0516522422, |grad|=0.372485
C     -0.944226     0.030911     0.096976
C      0.459957    -0.323523    -0.218238
O      1.350762     0.394783     0.706080
H     -1.294510     0.668954    -0.787460
H     -1.581419    -0.944065     0.120833
H     -1.150485     0.507270     1.104881
H      0.756386    -0.061501    -1.259380
H      0.513573    -1.526047    -0.007739
H      1.749019     1.120280     0.387315
9
Iteration -1, Energy=-154.0902686462, |grad|=0.035122
C     -0.930943     0.062666     0.052642
C      0.510630    -0.396736    -0.158150
O      1.440755     0.346467     0.600617
H     -1.159279     0.946921    -0.550861
H     -1.641367    -0.727735    -0.250054
H     -1.086309     0.353872     1.101761
H      0.778113    -0.385076    -1.225996
H      0.592104    -1.440291     0.144449
H      1.496295     1.239912     0.285592
9
Iteration 0, Energy=-154.0908939526, |grad|=0.027020
C     -0.933232     0.067181     0.047306
C      0.510518    -0.391851    -0.160443
O      1.436716     0.339868     0.595994
H     -1.158590     0.947621    -0.551236
H     -1.633798    -0.717626    -0.242212
H     -1.087198     0.341715     1.094880
H      0.774675    -0.381509    -1.221426
H      0.599723    -1.437524     0.153597
H      1.491186     1.232126     0.283540
9
Iteration 1, Energy=-154.0912333381, |grad|=0.015511
C     -0.926080     0.073231     0.043692
C      0.504732    -0.395801    -0.158627
O      1.435607     0.335098     0.593327
H     -1.159289     0.953370    -0.554476
H     -1.630182    -0.710925    -0.235930
H     -1.088985     0.327343     1.089327
H      0.771489    -0.376780    -1.221184
H      0.608039    -1.429416     0.163406
H      1.484668     1.223881     0.280465
9
Iteration 2, Energy=-154.0913111146, |grad|=0.016609
C     -0.924448     0.073822     0.041918
C      0.506836    -0.395474    -0.160338
O      1.437163     0.330947     0.595295
H     -1.158840     0.959375    -0.557004
H     -1.631017    -0.709660    -0.235817
H     -1.090097     0.321346     1.091473
H      0.769013    -0.375679    -1.222102
H      0.610782    -1.428523     0.169787
H      1.480608     1.223847     0.276789
9
Iteration 3, Energy=-154.0913631954, |grad|=0.007699
C     -0.925039     0.074586     0.041549
C      0.508577    -0.396338    -0.160122
O      1.438637     0.333040     0.595176
H     -1.157998     0.961579    -0.557243
H     -1.632048    -0.709726    -0.237197
H     -1.090348     0.319246     1.093022
H      0.768261    -0.375770    -1.223462
H      0.611109    -1.428654     0.172122
H      1.478849     1.222036     0.276156
9
Iteration 4, Energy=-154.0913906250, |grad|=0.007264
C     -0.925764     0.075410     0.041692
C      0.509873    -0.397021    -0.159112
O      1.439982     0.334168     0.594717
H     -1.156555     0.963415    -0.556566
H     -1.633097    -0.709472    -0.239492
H     -1.090497     0.316915     1.094215
H      0.767779    -0.376344    -1.224978
H      0.611281    -1.428923     0.174544
H      1.476999     1.221852     0.274979
9
Iteration 0, Energy=-153.9728903695, |grad|=1.135419
C     -0.873905    -0.013351     0.033506
C      0.473841    -0.266760    -0.157624
O      1.272977     0.394870     0.644680
H     -1.296627     0.651564    -0.825683
H     -1.657298    -0.956679    -0.018570
H     -1.044444     0.693212     0.920346
H      0.801861    -0.173801    -1.313756
H      0.501642    -1.377992    -0.136052
H      1.760618     0.959446     0.453595
9
Iteration -1, Energy=-154.0913906250, |grad|=0.007264
C     -0.925764     0.075410     0.041692
C      0.509873    -0.397021    -0.159112
O      1.439982     0.334168     0.594717
H     -1.156555     0.963415    -0.556566
H     -1.633097    -0.709472    -0.239492
H     -1.090497     0.316915     1.094215
H      0.767779    -0.376344    -1.224978
H      0.611281    -1.428923     0.174544
H      1.476999     1.221852     0.274979
9
Iteration 0, Energy=-154.0914223721, |grad|=0.016537
C     -0.925512     0.074006     0.043306
C      0.507270    -0.396375    -0.158457
O      1.440202     0.333119     0.592075
H     -1.153180     0.963134    -0.551954
H     -1.632666    -0.706509    -0.244295
H     -1.090637     0.314645     1.093524
H      0.768164    -0.379115    -1.223442
H      0.610880    -1.429494     0.176399
H      1.475479     1.226588     0.272845
9
Iteration 1, Energy=-154.0914682519, |grad|=0.010123
C     -0.925383     0.073590     0.043722
C      0.506650    -0.397213    -0.158079
O      1.440525     0.335323     0.589904
H     -1.151270     0.963383    -0.549392
H     -1.632689    -0.705111    -0.247164
H     -1.090890     0.313242     1.093838
H      0.768125    -0.380740    -1.222661
H      0.610502    -1.429406     0.177405
H      1.474429     1.226931     0.272427
9
Iteration 2, Energy=-154.0915478200, |grad|=0.012005
C     -0.924740     0.072058     0.045060
C      0.505831    -0.399422    -0.156831
O      1.441327     0.340472     0.583282
H     -1.144579     0.965303    -0.540778
H     -1.633159    -0.700525    -0.257405
H     -1.092024     0.307969     1.095642
H      0.767594    -0.386736    -1.220223
H      0.609334    -1.429281     0.181429
H      1.470416     1.230162     0.269824
9
Iteration 3, Energy=-154.0916355192, |grad|=0.016723
C     -0.923616     0.070309     0.046588
C      0.506387    -0.401682    -0.155424
O      1.442517     0.345581     0.576380
H     -1.136330     0.969761    -0.530830
H     -1.634284    -0.695349    -0.270260
H     -1.093903     0.300493     1.098874
H      0.766289    -0.394699    -1.218190
H      0.608294    -1.429363     0.187317
H      1.464648     1.234948     0.265544
9
Iteration 4, Energy=-154.0918804800, |grad|=0.023599
C     -0.920526     0.066664     0.050879
C      0.508543    -0.407814    -0.150843
O      1.447672     0.360003     0.558048
H     -1.110604     0.987488    -0.500843
H     -1.637172    -0.678949    -0.309264
H     -1.100735     0.273690     1.108883
H      0.761173    -0.420669    -1.215171
H      0.607219    -1.430027     0.208118
H      1.444430     1.249615     0.250191
9
Iteration 0, Energy=-154.0032220312, |grad|=0.761512
C     -0.858593     0.122130     0.017464
C      0.418118    -0.256762    -0.100554
O      1.235131     0.297080     0.678204
H     -1.419474     0.775462    -0.793239
H     -1.577005    -0.914316     0.000726
H     -1.155885     0.516133     1.053357
H      0.708909    -0.171601    -1.188072
H      0.511910    -1.345413    -0.142987
H      1.782522     1.010707     0.309458
9
Iteration -1, Energy=-154.0918804800, |grad|=0.023599
C     -0.920526     0.066664     0.050879
C      0.508543    -0.407814    -0.150843
O      1.447672     0.360003     0.558048
H     -1.110604     0.987488    -0.500843
H     -1.637172    -0.678949    -0.309264
H     -1.100735     0.273690     1.108883
H      0.761173    -0.420669    -1.215171
H      0.607219    -1.430027     0.208118
H      1.444430     1.249615     0.250191
9
Iteration 0, Energy=-154.0919655475, |grad|=0.018392
C     -0.920668     0.067471     0.050497
C      0.509466    -0.405858    -0.151157
O      1.447449     0.354767     0.560641
H     -1.110778     0.989854    -0.501539
H     -1.636345    -0.678328    -0.308027
H     -1.101478     0.271399     1.108441
H      0.760368    -0.421364    -1.216509
H      0.608922    -1.430272     0.209891
H      1.443064     1.252332     0.247761
9
Iteration 1, Energy=-154.0920162391, |grad|=0.012822
C     -0.920519     0.068365     0.050103
C      0.509630    -0.406128    -0.151242
O      1.447571     0.355560     0.561088
H     -1.110898     0.991192    -0.501804
H     -1.635899    -0.678034    -0.307374
H     -1.101975     0.269956     1.108252
H      0.759909    -0.421716    -1.217278
H      0.609825    -1.429933     0.210717
H      1.442357     1.250737     0.247537
9
Iteration 2, Energy=-154.0921305251, |grad|=0.006788
C     -0.919334     0.073102     0.047828
C      0.510904    -0.406817    -0.151620
O      1.447490     0.356195     0.563792
H     -1.111442     0.998607    -0.502908
H     -1.633454    -0.676234    -0.304077
H     -1.104811     0.261859     1.107288
H      0.757374    -0.423821    -1.220910
H      0.614910    -1.427953     0.215495
H      1.438363     1.245061     0.245113
9
Iteration 3, Energy=-154.0921535091, |grad|=0.004914
C     -0.918131     0.074295     0.047086
C      0.511057    -0.407189    -0.151788
O      1.446644     0.355414     0.563276
H     -1.111176     1.001420    -0.502027
H     -1.632466    -0.674906    -0.304091
H     -1.106052     0.258399     1.106929
H      0.756616    -0.425086    -1.220615
H      0.616687    -1.426657     0.217602
H      1.436820     1.244310     0.243629
9
Iteration 4, Energy=-154.0921869467, |grad|=0.005945
C     -0.917679     0.075444     0.046422
C      0.510520    -0.406914    -0.151401
O      1.446229     0.355150     0.561198
H     -1.109340     1.006018    -0.498128
H     -1.630605    -0.671454    -0.306701
H     -1.108044     0.251698     1.106258
H      0.755917    -0.428574    -1.220121
H      0.619193    -1.425472     0.222232
H      1.433809     1.244106     0.240242
9
Iteration 0, Energy=-154.0516460191, |grad|=0.389001
C     -1.021384    -0.003457     0.002626
C      0.532927    -0.339616    -0.235805
O      1.257476     0.402928     0.660464
H     -1.415540     0.641891    -0.807653
H     -1.505300    -0.910209    -0.016854
H     -1.033881     0.604125     0.937609
H      0.754766    -0.068370    -1.177490
H      0.586444    -1.373220    -0.139494
H      1.799610     1.093851     0.487704
9
Iteration -1, Energy=-154.0921869467, |grad|=0.005945
C     -0.917679     0.075444     0.046422
C      0.510520    -0.406914    -0.151401
O      1.446229     0.355150     0.561198
H     -1.109340     1.006018    -0.498128
H     -1.630605    -0.671454    -0.306701
H     -1.108044     0.251698     1.106258
H      0.755917    -0.428574    -1.220121
H      0.619193    -1.425472     0.222232
H      1.433809     1.244106     0.240242
9
Iteration 0, Energy=-154.0922042526, |grad|=0.008397
C     -0.917227     0.075589     0.047145
C      0.510715    -0.408954    -0.151079
O      1.447089     0.357086     0.560208
H     -1.108316     1.005871    -0.496100
H     -1.631910    -0.671735    -0.309939
H     -1.108223     0.251453     1.107308
H      0.756138    -0.429584    -1.219645
H      0.617968    -1.424999     0.222409
H      1.433767     1.245274     0.239692
9
Iteration 1, Energy=-154.0922236261, |grad|=0.006312
C     -0.917371     0.074554     0.047635
C      0.510987    -0.408882    -0.150871
O      1.447635     0.357661     0.559337
H     -1.107262     1.006084    -0.494296
H     -1.632527    -0.671258    -0.312635
H     -1.108401     0.251059     1.108187
H      0.756312    -0.430721    -1.219209
H      0.617057    -1.425415     0.223057
H      1.433570     1.246919     0.238795
9
Iteration 2, Energy=-154.0922594988, |grad|=0.007183
C     -0.918537     0.070910     0.049219
C      0.511544    -0.408146    -0.149548
O      1.449357     0.361762     0.554956
H     -1.102910     1.007146    -0.486927
H     -1.633760    -0.668245    -0.322453
H     -1.109287     0.248258     1.110710
H      0.756871    -0.435474    -1.217877
H      0.614250    -1.427039     0.226184
H      1.432472     1.250828     0.235736
9
Iteration 3, Energy=-154.0922843093, |grad|=0.009941
C     -0.918420     0.070867     0.050107
C      0.511334    -0.408869    -0.148564
O      1.449781     0.362241     0.552617
H     -1.099780     1.008457    -0.481447
H     -1.633775    -0.665557    -0.328472
H     -1.110550     0.244063     1.111288
H      0.756734    -0.439126    -1.216965
H      0.613734    -1.426605     0.229126
H      1.430943     1.254528     0.232311
9
Iteration 4, Energy=-154.0923184009, |grad|=0.010952
C     -0.918005     0.070831     0.050565
C      0.510838    -0.409409    -0.147964
O      1.449927     0.363773     0.550176
H     -1.096866     1.010653    -0.476502
H     -1.633119    -0.662413    -0.333476
H     -1.112135     0.239083     1.111605
H      0.756248    -0.442765    -1.216093
H      0.613967    -1.425986     0.232469
H      1.429144     1.256233     0.229220
9
Iteration 0, Energy=-154.0306663298, |grad|=0.435388
C     -1.026538    -0.019406     0.023372
C      0.403046    -0.238717    -0.173884
O      1.360514     0.293529     0.807033
H     -1.265518     0.725991    -0.655433
H     -1.650592    -0.921221    -0.031354
H     -1.138553     0.570413     0.995975
H      0.734716    -0.046688    -1.308991
H      0.574076    -1.524817    -0.007801
H      1.814333     1.133878     0.417996
9
Iteration -1, Energy=-154.0923184009, |grad|=0.010952
C     -0.918005     0.070831     0.050565
C      0.510838    -0.409409    -0.147964
O      1.449927     0.363773     0.550176
H     -1.096866     1.010653    -0.476502
H     -1.633119    -0.662413    -0.333476
H     -1.112135     0.239083     1.111605
H      0.756248    -0.442765    -1.216093
H      0.613967    -1.425986     0.232469
H      1.429144     1.256233     0.229220
9
Iteration 0, Energy=-154.0923372626, |grad|=0.006221
C     -0.917660     0.070938     0.050276
C      0.510809    -0.409729    -0.148141
O      1.449828     0.365254     0.549865
H     -1.096863     1.011557    -0.476620
H     -1.632838    -0.662132    -0.333224
H     -1.112494     0.238271     1.111666
H      0.755936    -0.442963    -1.216136
H      0.614416    -1.425686     0.232887
H      1.428866     1.254489     0.229427
9
Iteration 1, Energy=-154.0923491175, |grad|=0.006308
C     -0.917286     0.071278     0.049958
C      0.510952    -0.409788    -0.148250
O      1.449563     0.365372     0.549916
H     -1.096796     1.012674    -0.476678
H     -1.632484    -0.661766    -0.332944
H     -1.112963     0.237099     1.111643
H      0.755524    -0.443282    -1.216245
H      0.615097    -1.425321     0.233546
H      1.428393     1.253733     0.229055
9
Iteration 2, Energy=-154.0923857921, |grad|=0.005553
C     -0.915976     0.073983     0.048797
C      0.511431    -0.410221    -0.148299
O      1.448502     0.364893     0.550443
H     -1.096017     1.017723    -0.476139
H     -1.630751    -0.659845    -0.332192
H     -1.115239     0.230761     1.110982
H      0.753618    -0.445171    -1.217090
H      0.618581    -1.423490     0.237092
H      1.425851     1.251367     0.226407
9
Iteration 3, Energy=-154.0923989429, |grad|=0.009894
C     -0.916024     0.073215     0.048351
C      0.510784    -0.409045    -0.148298
O      1.448805     0.365222     0.549716
H     -1.094018     1.021439    -0.473342
H     -1.629394    -0.656903    -0.334546
H     -1.117018     0.225849     1.111017
H      0.752667    -0.447750    -1.216860
H      0.620338    -1.423434     0.240719
H      1.423859     1.251407     0.223243
9
Iteration 4, Energy=-154.0924199514, |grad|=0.006961
C     -0.915819     0.074273     0.048425
C      0.510892    -0.409768    -0.147665
O      1.448760     0.365505     0.548966
H     -1.092656     1.023105    -0.471100
H     -1.629134    -0.655641    -0.336645
H     -1.118105     0.222723     1.110928
H      0.752142    -0.449340    -1.216776
H      0.621189    -1.422680     0.242645
H      1.422732     1.251823     0.221222
9
Iteration 0, Energy=-154.0266760065, |grad|=0.459620
C     -0.986456     0.145440     0.058193
C      0.450098    -0.225666    -0.102215
O      1.277402     0.403326     0.710279
H     -1.419273     0.805305    -0.728253
H     -1.612308    -0.961533     0.009572
H     -0.990475     0.670613     1.013227
H      0.848585    -0.217025    -1.311237
H      0.528247    -1.381117    -0.133476
H      1.925031     1.087568     0.381966
9
Iteration -1, Energy=-154.0924199514, |grad|=0.006961
C     -0.915819     0.074273     0.048425
C      0.510892    -0.409768    -0.147665
O      1.448760     0.365505     0.548966
H     -1.092656     1.023105    -0.471100
H     -1.629134    -0.655641    -0.336645
H     -1.118105     0.222723     1.110928
H      0.752142    -0.449340    -1.216776
H      0.621189    -1.422680     0.242645
H      1.422732     1.251823     0.221222
9
Iteration 0, Energy=-154.0924264481, |grad|=0.008596
C     -0.915450     0.075912     0.049175
C      0.511653    -0.411845    -0.146797
O      1.448582     0.366442     0.547933
H     -1.092076     1.022161    -0.469613
H     -1.630204    -0.656196    -0.338659
H     -1.118202     0.222548     1.111086
H      0.752313    -0.449694    -1.216482
H      0.620444    -1.421850     0.242385
H      1.422941     1.252522     0.220972
9
Iteration 1, Energy=-154.0924360707, |grad|=0.004129
C     -0.915575     0.074935     0.049095
C      0.511460    -0.411049    -0.147058
O      1.448734     0.366290     0.547946
H     -1.091947     1.022450    -0.469510
H     -1.630017    -0.655799    -0.338829
H     -1.118265     0.222542     1.111281
H      0.752322    -0.449879    -1.216334
H      0.620400    -1.422293     0.242650
H      1.422888     1.252804     0.220759
9
Iteration 2, Energy=-154.0924446689, |grad|=0.003175
C     -0.915700     0.073869     0.049278
C      0.511378    -0.410645    -0.147063
O      1.449001     0.366748     0.547395
H     -1.091360     1.022570    -0.468492
H     -1.630120    -0.655215    -0.340194
H     -1.118462     0.222338     1.111722
H      0.752427    -0.450465    -1.215960
H      0.619968    -1.422697     0.243074
H      1.422868     1.253497     0.220239
9
Iteration 3, Energy=-154.0924589524, |grad|=0.004977
C     -0.915948     0.072134     0.049955
C      0.511341    -0.410507    -0.146661
O      1.449605     0.368171     0.545770
H     -1.089650     1.022664    -0.465388
H     -1.630598    -0.653854    -0.344184
H     -1.119059     0.221411     1.112713
H      0.752691    -0.452132    -1.215093
H      0.618845    -1.423263     0.244172
H      1.422772     1.255376     0.218716
9
Iteration 4, Energy=-154.0924761433, |grad|=0.005838
C     -0.916180     0.070920     0.050772
C      0.511208    -0.410853    -0.145943
O      1.450257     0.370458     0.543601
H     -1.087123     1.023464    -0.460908
H     -1.630873    -0.651678    -0.349469
H     -1.120274     0.218765     1.113675
H      0.752742    -0.454783    -1.214198
H      0.618023    -1.423469     0.246243
H      1.422220     1.257176     0.216227
9
Iteration 0, Energy=-154.0063289158, |grad|=0.819170
C     -0.916094     0.073263     0.033846
C      0.507400    -0.239524    -0.129402
O      1.281255     0.243619     0.661935
H     -1.289453     0.751116    -0.682601
H     -1.574721    -0.931308     0.046763
H     -1.000941     0.510538     0.925907
H      0.873806    -0.144196    -1.305246
H      0.667745    -1.438680     0.027183
H      1.857234     1.008402     0.428972
9
Iteration -1, Energy=-154.0924761433, |grad|=0.005838
C     -0.916180     0.070920     0.050772
C      0.511208    -0.410853    -0.145943
O      1.450257     0.370458     0.543601
H     -1.087123     1.023464    -0.460908
H     -1.630873    -0.651678    -0.349469
H     -1.120274     0.218765     1.113675
H      0.752742    -0.454783    -1.214198
H      0.618023    -1.423469     0.246243
H      1.422220     1.257176     0.216227
9
Iteration 0, Energy=-154.0924838480, |grad|=0.004216
C     -0.915913     0.072487     0.050830
C      0.511521    -0.411942    -0.145455
O      1.449932     0.370353     0.543549
H     -1.086958     1.023684    -0.460524
H     -1.630931    -0.651773    -0.349655
H     -1.120563     0.217756     1.113386
H      0.752532    -0.455019    -1.214408
H      0.618420    -1.422643     0.246477
H      1.421961     1.257097     0.215801
9
Iteration 1, Energy=-154.0924888443, |grad|=0.003772
C     -0.915767     0.072735     0.050739
C      0.511530    -0.411904    -0.145488
O      1.449806     0.370319     0.543558
H     -1.086792     1.024313    -0.460326
H     -1.630712    -0.651468    -0.349709
H     -1.120870     0.216906     1.113303
H      0.752314    -0.455332    -1.214427
H      0.618815    -1.422457     0.246964
H      1.421677     1.256889     0.215387
9
Iteration 2, Energy=-154.0925125206, |grad|=0.009983
C     -0.915173     0.074291     0.049137
C      0.511194    -0.412584    -0.144220
O      1.449293     0.372375     0.542360
H     -1.083800     1.031521    -0.455848
H     -1.628094    -0.646762    -0.352657
H     -1.124658     0.206558     1.113184
H      0.750168    -0.459803    -1.214974
H      0.622626    -1.420129     0.253001
H      1.418444     1.254533     0.210017
9
Iteration 3, Energy=-154.0925266295, |grad|=0.008429
C     -0.914312     0.075584     0.049856
C      0.511544    -0.411899    -0.144695
O      1.448872     0.371269     0.542017
H     -1.081752     1.035116    -0.452601
H     -1.627557    -0.644612    -0.355797
H     -1.126793     0.200809     1.112734
H      0.748977    -0.462622    -1.214220
H      0.624407    -1.419534     0.256829
H      1.416613     1.255888     0.205876
9
Iteration 4, Energy=-154.0925398435, |grad|=0.005083
C     -0.914480     0.075078     0.050121
C      0.511525    -0.412155    -0.144527
O      1.449158     0.372214     0.541442
H     -1.081580     1.034393    -0.452067
H     -1.627975    -0.644712    -0.356690
H     -1.126595     0.201531     1.113016
H      0.749278    -0.462593    -1.213971
H      0.623702    -1.419780     0.256510
H      1.416968     1.256026     0.206166
9
Iteration 0, Energy=-154.0534028704, |grad|=0.349132
C     -0.927433     0.020955     0.048711
C      0.536581    -0.310966    -0.173281
O      1.274935     0.309066     0.712842
H     -1.318709     0.766781    -0.676874
H     -1.655768    -0.857767    -0.063087
H     -0.989004     0.684228     0.955752
H      0.861726    -0.044692    -1.303015
H      0.533609    -1.468341     0.025696
H      1.798280     1.016494     0.334386
9
Iteration -1, Energy=-154.0925398435, |grad|=0.005083
C     -0.914480     0.075078     0.050121
C      0.511525    -0.412155    -0.144527
O      1.449158     0.372214     0.541442
H     -1.081580     1.034393    -0.452067
H     -1.627975    -0.644712    -0.356690
H     -1.126595     0.201531     1.113016
H      0.749278    -0.462593    -1.213971
H      0.623702    -1.419780     0.256510
H      1.416968     1.256026     0.206166
9
Iteration 0, Energy=-154.0925484546, |grad|=0.006183
C     -0.914579     0.074600     0.050192
C      0.511604    -0.412960    -0.143869
O      1.449362     0.373793     0.540335
H     -1.081131     1.033724    -0.450881
H     -1.628410    -0.644514    -0.358233
H     -1.126627     0.201856     1.113560
H      0.749582    -0.462850    -1.213682
H      0.622879    -1.419705     0.256331
H      1.417322     1.256056     0.206248
9
Iteration 1, Energy=-154.0925572379, |grad|=0.004483
C     -0.914689     0.073930     0.050499
C      0.511684    -0.412996    -0.143653
O      1.449555     0.374049     0.539750
H     -1.080678     1.033266    -0.449831
H     -1.628770    -0.644254    -0.359668
H     -1.126678     0.202072     1.113931
H      0.749820    -0.463176    -1.213275
H      0.622223    -1.419934     0.256401
H      1.417533     1.257044     0.205844
9
Iteration 2, Energy=-154.0925687758, |grad|=0.004310
C     -0.915139     0.071708     0.051995
C      0.511442    -0.412507    -0.143756
O      1.450498     0.375733     0.538019
H     -1.078953     1.032472    -0.446253
H     -1.629616    -0.642993    -0.364460
H     -1.127122     0.201877     1.114740
H      0.750425    -0.464685    -1.211890
H      0.620510    -1.421066     0.257354
H      1.417953     1.259461     0.204250
9
Iteration 3, Energy=-154.0925736471, |grad|=0.004424
C     -0.915298     0.071765     0.051806
C      0.511677    -0.413152    -0.142669
O      1.450478     0.375711     0.537388
H     -1.078140     1.032539    -0.444528
H     -1.629686    -0.642257    -0.366255
H     -1.127655     0.200846     1.115266
H      0.750497    -0.465529    -1.211917
H      0.620252    -1.420652     0.257896
H      1.417875     1.260727     0.203012
9
Iteration 4, Energy=-154.0925936859, |grad|=0.002174
C     -0.914996     0.072261     0.051976
C      0.511703    -0.413261    -0.142533
O      1.450251     0.376985     0.536665
H     -1.076605     1.035146    -0.441988
H     -1.628974    -0.640303    -0.368626
H     -1.129449     0.196584     1.115385
H      0.749799    -0.467740    -1.211703
H      0.621316    -1.420025     0.260426
H      1.416956     1.260353     0.200397
9
Iteration 0, Energy=-154.0381451025, |grad|=0.462325
C     -0.879050     0.140720    -0.002755
C      0.479555    -0.395934    -0.230741
O      1.266382     0.373231     0.772515
H     -1.323273     0.791643    -0.659172
H     -1.607308    -0.894225    -0.024613
H     -1.120717     0.500480     1.079218
H      0.725616    -0.057076    -1.248066
H      0.591452    -1.395584     0.005559
H      1.763139     1.142604     0.360833
9
Iteration -1, Energy=-154.0925936859, |grad|=0.002174
C     -0.914996     0.072261     0.051976
C      0.511703    -0.413261    -0.142533
O      1.450251     0.376985     0.536665
H     -1.076605     1.035146    -0.441988
H     -1.628974    -0.640303    -0.368626
H     -1.129449     0.196584     1.115385
H      0.749799    -0.467740    -1.211703
H      0.621316    -1.420025     0.260426
H      1.416956     1.260353     0.200397
9
Iteration 0, Energy=-154.0925991081, |grad|=0.004570
C     -0.914306     0.072485     0.052041
C      0.511512    -0.413059    -0.142868
O      1.450033     0.377669     0.536234
H     -1.076055     1.036790    -0.440976
H     -1.628701    -0.639509    -0.369441
H     -1.130312     0.194361     1.115070
H      0.749250    -0.468600    -1.211118
H      0.622137    -1.419625     0.261802
H      1.416442     1.259487     0.199257
9
Iteration 1, Energy=-154.0926070545, |grad|=0.003877
C     -0.913925     0.072977     0.051778
C      0.511545    -0.413137    -0.142553
O      1.449734     0.377687     0.535841
H     -1.075250     1.038610    -0.439423
H     -1.628247    -0.638363    -0.370584
H     -1.131387     0.191513     1.114828
H      0.748644    -0.469730    -1.210757
H      0.623102    -1.418884     0.263450
H      1.415782     1.259327     0.197420
9
Iteration 2, Energy=-154.0926214795, |grad|=0.006624
C     -0.914075     0.074644     0.051012
C      0.511669    -0.414345    -0.140517
O      1.449489     0.379840     0.533953
H     -1.071839     1.044194    -0.432798
H     -1.626621    -0.633874    -0.375945
H     -1.135133     0.181583     1.114381
H      0.746962    -0.474080    -1.210295
H      0.625798    -1.416537     0.269276
H      1.413750     1.258576     0.190933
9
Iteration 3, Energy=-154.0926358803, |grad|=0.006013
C     -0.913885     0.074813     0.051553
C      0.511628    -0.413997    -0.139960
O      1.449680     0.380626     0.532797
H     -1.069031     1.047952    -0.427374
H     -1.626038    -0.630610    -0.381347
H     -1.137951     0.174834     1.114444
H      0.746019    -0.477590    -1.209480
H      0.627110    -1.415945     0.273897
H      1.412467     1.259916     0.185470
9
Iteration 4, Energy=-154.0926516128, |grad|=0.006527
C     -0.914012     0.074495     0.052144
C      0.511709    -0.414269    -0.139192
O      1.450045     0.382291     0.531392
H     -1.066806     1.049875    -0.422874
H     -1.625937    -0.628216    -0.386244
H     -1.139934     0.170621     1.115062
H      0.745708    -0.480192    -1.208954
H      0.627274    -1.415698     0.276908
H      1.411954     1.261092     0.181758
9
Iteration 0, Energy=-153.9921973155, |grad|=0.979002
C     -0.978682    -0.045868     0.075761
C      0.573828    -0.278839    -0.220622
O      1.316298     0.330709     0.675655
H     -1.360234     0.705372    -0.655032
H     -1.556888    -0.777966     0.030468
H     -1.076168     0.579887     1.100258
H      0.763300    -0.190235    -1.176402
H      0.624917    -1.473649    -0.140771
H      1.735826     0.967433     0.415668
9
Iteration -1, Energy=-154.0926516128, |grad|=0.006527
C     -0.914012     0.074495     0.052144
C      0.511709    -0.414269    -0.139192
O      1.450045     0.382291     0.531392
H     -1.066806     1.049875    -0.422874
H     -1.625937    -0.628216    -0.386244
H     -1.139934     0.170621     1.115062
H      0.745708    -0.480192    -1.208954
H      0.627274    -1.415698     0.276908
H      1.411954     1.261092     0.181758
9
Iteration 0, Energy=-154.0926594675, |grad|=0.004972
C     -0.913873     0.074064     0.052231
C      0.511793    -0.414840    -0.139019
O      1.449994     0.383726     0.530553
H     -1.066688     1.049405    -0.422395
H     -1.626155    -0.628106    -0.386985
H     -1.140003     0.171009     1.115497
H      0.745911    -0.480254    -1.208659
H      0.626700    -1.415610     0.276622
H      1.412321     1.260605     0.182153
9
Iteration 1, Energy=-154.0926645866, |grad|=0.003952
C     -0.913831     0.073628     0.052414
C      0.511891    -0.414879    -0.138963
O      1.449959     0.383836     0.530223
H     -1.066550     1.048997    -0.421967
H     -1.626328    -0.627981    -0.387643
H     -1.140051     0.171322     1.115794
H      0.746092    -0.480359    -1.208402
H      0.626259    -1.415702     0.276490
H      1.412559     1.261139     0.182053
9
Iteration 2, Energy=-154.0926751603, |grad|=0.002444
C     -0.914378     0.071643     0.053886
C      0.511564    -0.414522    -0.138876
O      1.450560     0.385137     0.528941
H     -1.065524     1.046783    -0.419382
H     -1.626998    -0.627104    -0.391289
H     -1.140277     0.172481     1.116768
H      0.747165    -0.481256    -1.207527
H      0.624175    -1.416799     0.276238
H      1.413711     1.263638     0.181241
9
Iteration 3, Energy=-154.0926763803, |grad|=0.001640
C     -0.914425     0.071683     0.053626
C      0.511799    -0.414897    -0.138423
O      1.450449     0.385119     0.528793
H     -1.065397     1.046855    -0.419022
H     -1.627003    -0.626964    -0.391635
H     -1.140475     0.172232     1.117066
H      0.747168    -0.481422    -1.207569
H      0.624097    -1.416515     0.276236
H      1.413787     1.263909     0.180929
9
Iteration 4, Energy=-154.0926771078, |grad|=0.001451
C     -0.914345     0.071770     0.053562
C      0.511886    -0.414915    -0.138433
O      1.450369     0.385125     0.528813
H     -1.065374     1.047187    -0.418992
H     -1.626968    -0.626928    -0.391635
H     -1.140614     0.171905     1.117070
H      0.747061    -0.481509    -1.207534
H      0.624249    -1.416407     0.276385
H      1.413735     1.263771     0.180765
9
Iteration 0, Energy=-154.0445534929, |grad|=0.466181
C     -0.989549     0.012477     0.103309
C      0.437927    -0.366904    -0.134035
O      1.314405     0.404893     0.787154
H     -1.300200     0.645845    -0.770409
H     -1.636704    -0.831820     0.113375
H     -1.039849     0.679573     1.100875
H      0.880774    -0.094526    -1.263808
H      0.587956    -1.337157    -0.079633
H      1.837153     1.019647     0.373746
9
Iteration -1, Energy=-154.0926771078, |grad|=0.001451
C     -0.914345     0.071770     0.053562
C      0.511886    -0.414915    -0.138433
O      1.450369     0.385125     0.528813
H     -1.065374     1.047187    -0.418992
H     -1.626968    -0.626928    -0.391635
H     -1.140614     0.171905     1.117070
H      0.747061    -0.481509    -1.207534
H      0.624249    -1.416407     0.276385
H      1.413735     1.263771     0.180765
9
Iteration 0, Energy=-154.0926778060, |grad|=0.001456
C     -0.914263     0.071757     0.053725
C      0.511811    -0.414727    -0.138641
O      1.450374     0.385332     0.528793
H     -1.065292     1.047466    -0.418849
H     -1.626944    -0.626833    -0.391795
H     -1.140761     0.171562     1.116966
H      0.746991    -0.481660    -1.207404
H      0.624369    -1.416476     0.276631
H      1.413715     1.263580     0.180575
9
Iteration 1, Energy=-154.0926786718, |grad|=0.001675
C     -0.914224     0.071825     0.053752
C      0.511790    -0.414667    -0.138638
O      1.450336     0.385410     0.528770
H     -1.065167     1.047782    -0.418575
H     -1.626879    -0.626667    -0.392019
H     -1.140979     0.171068     1.116915
H      0.746909    -0.481862    -1.207333
H      0.624520    -1.416414     0.276907
H      1.413694     1.263525     0.180221
9
Iteration 2, Energy=-154.0926856195, |grad|=0.003807
C     -0.914017     0.072683     0.053702
C      0.511659    -0.414651    -0.137993
O      1.449875     0.386933     0.528155
H     -1.063514     1.051469    -0.414773
H     -1.625994    -0.624378    -0.395081
H     -1.143749     0.164891     1.116552
H      0.745971    -0.484396    -1.206592
H      0.626201    -1.415267     0.280208
H      1.413567     1.262715     0.175821
9
Iteration 3, Energy=-154.0926878923, |grad|=0.007192
C     -0.913968     0.072852     0.054049
C      0.511693    -0.414259    -0.137321
O      1.449505     0.387431     0.527542
H     -1.061584     1.054597    -0.410096
H     -1.625314    -0.621714    -0.399334
H     -1.146612     0.158910     1.116416
H      0.745249    -0.487075    -1.205551
H      0.627365    -1.414380     0.283769
H      1.413668     1.263636     0.170525
9
Iteration 4, Energy=-154.0926935946, |grad|=0.003812
C     -0.914039     0.072920     0.053897
C      0.511700    -0.414674    -0.136889
O      1.449495     0.388131     0.527171
H     -1.061348     1.054725    -0.409407
H     -1.625253    -0.621371    -0.399950
H     -1.146926     0.158330     1.116562
H      0.745240    -0.487338    -1.205550
H      0.627347    -1.414100     0.284027
H      1.413785     1.263378     0.170139
9
Iteration 0, Energy=-154.0201471149, |grad|=0.599886
C     -0.999070     0.138258     0.141932
C      0.564226    -0.280013    -0.103977
O      1.273132     0.333131     0.792025
H     -1.299767     0.723110    -0.647066
H     -1.570994    -0.937225    -0.042101
H     -1.106099     0.571093     1.054517
H      0.714569    -0.062395    -1.262123
H      0.626789    -1.509394    -0.082967
H      1.857659     1.096415     0.367320
9
Iteration -1, Energy=-154.0926935946, |grad|=0.003812
C     -0.914039     0.072920     0.053897
C      0.511700    -0.414674    -0.136889
O      1.449495     0.388131     0.527171
H     -1.061348     1.054725    -0.409407
H     -1.625253    -0.621371    -0.399950
H     -1.146926     0.158330     1.116562
H      0.745240    -0.487338    -1.205550
H      0.627347    -1.414100     0.284027
H      1.413785     1.263378     0.170139
9
Iteration 0, Energy=-154.0926964507, |grad|=0.002740
C     -0.914196     0.072792     0.053737
C      0.511746    -0.415199    -0.136443
O      1.449571     0.388789     0.526766
H     -1.061274     1.054280    -0.409028
H     -1.625319    -0.621237    -0.400380
H     -1.146914     0.158551     1.116836
H      0.745391    -0.487299    -1.205625
H      0.627013    -1.413936     0.283873
H      1.413982     1.263259     0.170263
9
Iteration 1, Energy=-154.0926982584, |grad|=0.002254
C     -0.914273     0.072530     0.053827
C      0.511780    -0.415247    -0.136349
O      1.449642     0.388851     0.526605
H     -1.061195     1.053953    -0.408715
H     -1.625419    -0.621126    -0.400830
H     -1.146907     0.158751     1.116994
H      0.745510    -0.487299    -1.205552
H      0.626740    -1.413997     0.283867
H      1.414122     1.263583     0.170153
9
Iteration 2, Energy=-154.0927005526, |grad|=0.003239
C     -0.914423     0.070910     0.054940
C      0.511683    -0.414990    -0.136568
O      1.450160     0.390002     0.525601
H     -1.060708     1.052469    -0.406981
H     -1.626094    -0.620553    -0.403590
H     -1.146964     0.159640     1.117648
H      0.746122    -0.487428    -1.204820
H      0.625298    -1.414742     0.284153
H      1.414927     1.264691     0.169616
9
Iteration 3, Energy=-154.0927021989, |grad|=0.001549
C     -0.914520     0.071248     0.054551
C      0.511824    -0.415216    -0.136075
O      1.450005     0.389452     0.525757
H     -1.060671     1.052713    -0.406894
H     -1.625949    -0.620477    -0.403486
H     -1.147116     0.159213     1.117744
H      0.746048    -0.487530    -1.205013
H      0.625507    -1.414416     0.284188
H      1.414871     1.265014     0.169227
9
Iteration 4, Energy=-154.0927025332, |grad|=0.000819
C     -0.914502     0.071352     0.054531
C      0.511800    -0.415187    -0.136167
O      1.449978     0.389518     0.525817
H     -1.060694     1.052922    -0.407012
H     -1.625876    -0.620494    -0.403295
H     -1.147148     0.159051     1.117650
H      0.745976    -0.487555    -1.205011
H      0.625654    -1.414388     0.284232
H      1.414811     1.264782     0.169256
9
Iteration 0, Energy=-154.0041562233, |grad|=0.775976
C     -1.019870    -0.042852    -0.051909
C      0.539635    -0.284741    -0.237554
O      1.245424     0.337875     0.642382
H     -1.445087     0.817142    -0.684491
H     -1.527723    -0.806812     0.108522
H     -0.993088     0.545885     1.037308
H      0.738747    -0.059808    -1.318679
H      0.618485    -1.505907     0.011688
H      1.875441     1.098563     0.308952
9
Iteration -1, Energy=-154.0927025332, |grad|=0.000819
C     -0.914502     0.071352     0.054531
C      0.511800    -0.415187    -0.136167
O      1.449978     0.389518     0.525817
H     -1.060694     1.052922    -0.407012
H     -1.625876    -0.620494    -0.403295
H     -1.147148     0.159051     1.117650
H      0.745976    -0.487555    -1.205011
H      0.625654    -1.414388     0.284232
H      1.414811     1.264782     0.169256
9
Iteration 0, Energy=-154.0927027156, |grad|=0.000717
C     -0.914497     0.071356     0.054561
C      0.511779    -0.415169    -0.136202
O      1.449977     0.389626     0.525797
H     -1.060667     1.053008    -0.406948
H     -1.625854    -0.620451    -0.403354
H     -1.147205     0.158923     1.117627
H      0.745955    -0.487603    -1.204973
H      0.625690    -1.414383     0.284303
H      1.414822     1.264694     0.169188
9
Iteration 0, Energy=-154.0584241524, |grad|=0.454457
C     -0.965040     0.105474     0.059883
C      0.564961    -0.330706    -0.157729
O      1.292486     0.378128     0.827483
H     -1.331692     0.760380    -0.662710
H     -1.545509    -0.846237     0.120218
H     -0.989393     0.530890     0.957988
H      0.867746    -0.155064    -1.166030
H      0.683257    -1.389400    -0.069938
H      1.774876     0.961984     0.409683
9
Iteration -1, Energy=-154.0927027156, |grad|=0.000717
C     -0.914497     0.071356     0.054561
C      0.511779    -0.415169    -0.136202
O      1.449977     0.389626     0.525797
H     -1.060667     1.053008    -0.406948
H     -1.625854    -0.620451    -0.403354
H     -1.147205     0.158923     1.117627
H      0.745955    -0.487603    -1.204973
H      0.625690    -1.414383     0.284303
H      1.414822     1.264694     0.169188
9
Iteration 0, Energy=-154.0927033554, |grad|=0.002267
C     -0.914509     0.071515     0.054499
C      0.511795    -0.415122    -0.135975
O      1.449851     0.389459     0.525833
H     -1.060451     1.053506    -0.406360
H     -1.625691    -0.620105    -0.403820
H     -1.147643     0.157973     1.117610
H      0.745831    -0.487954    -1.204870
H      0.625933    -1.414167     0.284761
H      1.414885     1.264895     0.168323
9
Iteration 1, Energy=-154.0927044341, |grad|=0.001897
C     -0.914510     0.071624     0.054495
C      0.511766    -0.415135    -0.135841
O      1.449776     0.389708     0.525751
H     -1.060255     1.053956    -0.405818
H     -1.625556    -0.619790    -0.404275
H     -1.148038     0.157129     1.117582
H      0.745722    -0.488268    -1.204747
H      0.626127    -1.413992     0.285178
H      1.414969     1.264768     0.167675
9
Iteration 2, Energy=-154.0927095821, |grad|=0.002077
C     -0.914544     0.072058     0.054833
C      0.511569    -0.414945    -0.134949
O      1.449239     0.391881     0.524950
H     -1.058414     1.057682    -0.400617
H     -1.624539    -0.616871    -0.408934
H     -1.151574     0.149887     1.117389
H      0.744861    -0.491067    -1.203422
H      0.627518    -1.412738     0.289060
H      1.415885     1.264114     0.161691
9
Iteration 3, Energy=-154.0927112572, |grad|=0.004062
C     -0.914736     0.072309     0.054725
C      0.511565    -0.415560    -0.133327
O      1.448908     0.393733     0.523936
H     -1.056948     1.059602    -0.396080
H     -1.623992    -0.614579    -0.413073
H     -1.154178     0.144936     1.117672
H      0.744493    -0.493037    -1.202740
H      0.628029    -1.411505     0.291700
H      1.416860     1.264102     0.157185
9
Iteration 4, Energy=-154.0927139500, |grad|=0.002420
C     -0.914784     0.071991     0.055044
C      0.511544    -0.415332    -0.133381
O      1.448924     0.394130     0.523717
H     -1.056575     1.059972    -0.394934
H     -1.623952    -0.614000    -0.414283
H     -1.154763     0.143957     1.117676
H      0.744447    -0.493495    -1.202356
H      0.628014    -1.411510     0.292449
H      1.417145     1.264289     0.156067
9
Iteration 0, Energy=-154.0256288014, |grad|=0.604876
C     -1.035320    -0.009278     0.049209
C      0.511006    -0.408697    -0.259217
O      1.273800     0.421426     0.761630
H     -1.396788     0.815490    -0.760529
H     -1.517463    -0.891758    -0.000407
H     -1.133845     0.557202     1.022130
H      0.781387    -0.058176    -1.137856
H      0.666907    -1.348659    -0.081190
H      1.889711     1.044816     0.487395
9
Iteration -1, Energy=-154.0927139500, |grad|=0.002420
C     -0.914784     0.071991     0.055044
C      0.511544    -0.415332    -0.133381
O      1.448924     0.394130     0.523717
H     -1.056575     1.059972    -0.394934
H     -1.623952    -0.614000    -0.414283
H     -1.154763     0.143957     1.117676
H      0.744447    -0.493495    -1.202356
H      0.628014    -1.411510     0.292449
H      1.417145     1.264289     0.156067
9
Iteration 0, Energy=-154.0927150131, |grad|=0.002339
C     -0.914814     0.071567     0.055355
C      0.511568    -0.414965    -0.133702
O      1.449008     0.393822     0.523757
H     -1.056529     1.059760    -0.394751
H     -1.624079    -0.613936    -0.414638
H     -1.154734     0.144215     1.117679
H      0.744534    -0.493477    -1.202146
H      0.627807    -1.411791     0.292562
H      1.417239     1.264805     0.155884
9
Iteration 1, Energy=-154.0927157991, |grad|=0.001400
C     -0.914837     0.071472     0.055375
C      0.511563    -0.415057    -0.133644
O      1.449052     0.394036     0.523628
H     -1.056510     1.059599    -0.394622
H     -1.624138    -0.613910    -0.414812
H     -1.154727     0.144331     1.117745
H      0.744595    -0.493453    -1.202137
H      0.627683    -1.411798     0.292539
H      1.417319     1.264779     0.155929
9
Iteration 2, Energy=-154.0927169185, |grad|=0.000671
C     -0.914934     0.071047     0.055503
C      0.511584    -0.415229    -0.133494
O      1.449202     0.394431     0.523274
H     -1.056429     1.059002    -0.394122
H     -1.624371    -0.613801    -0.415505
H     -1.154703     0.144775     1.117983
H      0.744826    -0.493374    -1.202064
H      0.627220    -1.411888     0.292499
H      1.417606     1.265035     0.155925
9
Iteration 3, Energy=-154.0927170879, |grad|=0.000354
C     -0.914995     0.070869     0.055562
C      0.511603    -0.415257    -0.133421
O      1.449252     0.394466     0.523171
H     -1.056385     1.058794    -0.393880
H     -1.624465    -0.613739    -0.415837
H     -1.154727     0.144899     1.118098
H      0.744925    -0.493364    -1.202022
H      0.627050    -1.411925     0.292518
H      1.417743     1.265258     0.155811
9
Iteration 0, Energy=-153.9576896114, |grad|=0.972355
C     -0.864563     0.072927    -0.026642
C      0.388148    -0.225665    -0.092641
O      1.196595     0.238366     0.789799
H     -1.306603     0.769573    -0.661647
H     -1.668956    -0.821811    -0.077747
H     -1.044723     0.672685     1.104813
H      0.728598    -0.111255    -1.235318
H      0.654485    -1.395284     0.015292
H      1.868677     0.953192     0.322909
