9
Iteration -1, Energy=-154.0825022801, |grad|=0.098006
C     -1.018202     0.001911     0.031454
C      0.457277    -0.325648    -0.175427
O      1.267248     0.400837     0.720888
H     -1.359072     0.679396    -0.707723
H     -1.557376    -0.934582    -0.019005
H     -1.160113     0.461926     1.030126
H      0.753725    -0.190499    -1.199218
H      0.572610    -1.413256    -0.021149
H      1.756987     1.071363     0.277447
9
Iteration 1, Energy=-154.0842166990, |grad|=0.048076
C     -1.006694    -0.003047     0.048149
C      0.454582    -0.333879    -0.163660
O      1.268326     0.394322     0.720271
H     -1.369223     0.691291    -0.719682
H     -1.566916    -0.935023    -0.020218
H     -1.159275     0.455965     1.022057
H      0.756988    -0.184169    -1.209170
H      0.578567    -1.405944    -0.014603
H      1.756730     1.071933     0.274249
9
Iteration 2, Energy=-154.0847572324, |grad|=0.036867
C     -1.007947    -0.002597     0.043809
C      0.457443    -0.334303    -0.165317
O      1.272362     0.392445     0.720466
H     -1.371774     0.692160    -0.719118
H     -1.572604    -0.933463    -0.020252
H     -1.159084     0.453792     1.022402
H      0.756602    -0.181194    -1.209038
H      0.583672    -1.405100    -0.008671
H      1.754414     1.069709     0.273113
9
Iteration 3, Energy=-154.0862171008, |grad|=0.035203
C     -1.013682    -0.003134     0.024789
C      0.469775    -0.334752    -0.170735
O      1.292167     0.370555     0.723184
H     -1.389256     0.699818    -0.717445
H     -1.609387    -0.919841    -0.022345
H     -1.156833     0.436995     1.019276
H      0.756783    -0.162235    -1.209859
H      0.618599    -1.400193     0.030069
H      1.744920     1.064237     0.260459
9
Iteration 4, Energy=-154.0864054669, |grad|=0.021081
C     -1.014538    -0.004052     0.024627
C      0.467990    -0.338006    -0.169742
O      1.298792     0.372010     0.719490
H     -1.391724     0.701226    -0.716751
H     -1.615263    -0.915771    -0.024238
H     -1.156139     0.433323     1.017217
H      0.758324    -0.159886    -1.209608
H      0.624499    -1.398603     0.035195
H      1.741143     1.061208     0.261202
9
Iteration 5, Energy=-154.0864805176, |grad|=0.012898
C     -1.014165    -0.004697     0.025984
C      0.467235    -0.339369    -0.168514
O      1.299625     0.370300     0.718446
H     -1.392699     0.702328    -0.716646
H     -1.618174    -0.913929    -0.025782
H     -1.155855     0.431538     1.016211
H      0.759328    -0.159520    -1.209273
H      0.627001    -1.397894     0.037019
H      1.740788     1.062693     0.259950
9
Iteration 6, Energy=-154.0865653513, |grad|=0.011106
C     -1.013947    -0.005905     0.027985
C      0.465456    -0.341134    -0.166818
O      1.301131     0.368557     0.715461
H     -1.392907     0.703761    -0.714970
H     -1.623304    -0.909978    -0.029939
H     -1.155478     0.428522     1.015663
H      0.761437    -0.160852    -1.207061
H      0.631055    -1.397941     0.039209
H      1.739641     1.066419     0.257864
9
Iteration 7, Energy=-154.0866430834, |grad|=0.013833
C     -1.013951    -0.006624     0.029329
C      0.464644    -0.343191    -0.165367
O      1.302772     0.368337     0.712104
H     -1.391592     0.705366    -0.711988
H     -1.628991    -0.906049    -0.035626
H     -1.155374     0.425498     1.016942
H      0.763603    -0.164235    -1.204183
H      0.634509    -1.398853     0.040649
H      1.737465     1.071201     0.255533
9
Iteration 8, Energy=-154.0868188658, |grad|=0.018105
C     -1.013728    -0.008871     0.032579
C      0.465414    -0.347313    -0.162568
O      1.307336     0.370617     0.705767
H     -1.385900     0.712093    -0.704104
H     -1.642622    -0.897142    -0.051112
H     -1.155741     0.417433     1.022757
H      0.768061    -0.175645    -1.199253
H      0.641174    -1.403078     0.044418
H      1.729091     1.083355     0.248909
9
Iteration 9, Energy=-154.0869936312, |grad|=0.038696
C     -1.012472    -0.006556     0.034461
C      0.468503    -0.360983    -0.153506
O      1.314437     0.376523     0.694687
H     -1.367970     0.728666    -0.683608
H     -1.665413    -0.881923    -0.082511
H     -1.157198     0.397036     1.035846
H      0.774878    -0.201294    -1.196402
H      0.651027    -1.408559     0.054633
H      1.707293     1.108540     0.233793
9
Iteration 10, Energy=-154.0873204784, |grad|=0.024711
C     -1.011082    -0.009947     0.037812
C      0.471388    -0.362967    -0.153597
O      1.318651     0.382278     0.689424
H     -1.356022     0.742277    -0.673438
H     -1.674672    -0.872645    -0.100335
H     -1.158516     0.384889     1.044193
H      0.776769    -0.218497    -1.194223
H      0.654600    -1.415057     0.062000
H      1.691968     1.121119     0.225558
9
Iteration 1, Energy=-154.0873303360, |grad|=0.024666
C     -1.011088    -0.009805     0.037777
C      0.471364    -0.362953    -0.153610
O      1.318562     0.382249     0.689461
H     -1.356022     0.742243    -0.673465
H     -1.673895    -0.872735    -0.100251
H     -1.158516     0.384926     1.044169
H      0.776725    -0.218454    -1.194321
H      0.653712    -1.414957     0.061999
H      1.691997     1.121042     0.225594
9
Iteration 2, Energy=-154.0873411628, |grad|=0.024539
C     -1.011075    -0.009844     0.037803
C      0.471472    -0.362940    -0.153633
O      1.318244     0.382323     0.689691
H     -1.355808     0.742400    -0.673447
H     -1.673561    -0.872473    -0.100127
H     -1.158540     0.384583     1.044358
H      0.776607    -0.218821    -1.194327
H      0.653962    -1.415030     0.062292
H      1.691804     1.120980     0.225344
9
Iteration -1, Energy=-154.0873411628, |grad|=0.024539
C     -1.011075    -0.009844     0.037803
C      0.471472    -0.362940    -0.153633
O      1.318244     0.382323     0.689691
H     -1.355808     0.742400    -0.673447
H     -1.673561    -0.872473    -0.100127
H     -1.158540     0.384583     1.044358
H      0.776607    -0.218821    -1.194327
H      0.653962    -1.415030     0.062292
H      1.691804     1.120980     0.225344
9
Iteration 1, Energy=-154.0873819051, |grad|=0.021211
C     -1.010989    -0.010013     0.037565
C      0.471592    -0.362598    -0.154104
O      1.318475     0.382805     0.689580
H     -1.355476     0.742944    -0.673393
H     -1.672946    -0.872516    -0.099997
H     -1.158583     0.384300     1.044430
H      0.776233    -0.218959    -1.194538
H      0.653716    -1.415106     0.062834
H      1.691083     1.120320     0.225577
9
Iteration 2, Energy=-154.0876174056, |grad|=0.019634
C     -1.009430    -0.010388     0.035108
C      0.473077    -0.359863    -0.157649
O      1.318644     0.384326     0.689730
H     -1.351431     0.749237    -0.672437
H     -1.665857    -0.873718    -0.098769
H     -1.158951     0.380533     1.044813
H      0.772071    -0.220472    -1.197951
H      0.650673    -1.414833     0.069109
H      1.684310     1.116356     0.225998
9
Iteration 3, Energy=-154.0877807625, |grad|=0.021597
C     -1.007128    -0.008978     0.033057
C      0.473789    -0.359190    -0.159258
O      1.317498     0.383636     0.690241
H     -1.346942     0.755817    -0.670981
H     -1.658426    -0.875704    -0.098168
H     -1.159065     0.375988     1.044725
H      0.768077    -0.222110    -1.202288
H      0.647158    -1.413242     0.075511
H      1.678145     1.114962     0.225113
9
Iteration 4, Energy=-154.0880759118, |grad|=0.013663
C     -1.002479    -0.004521     0.030864
C      0.470727    -0.360621    -0.160634
O      1.315548     0.380043     0.687377
H     -1.335577     0.770949    -0.665607
H     -1.640533    -0.879395    -0.102558
H     -1.157544     0.364153     1.045009
H      0.760355    -0.229004    -1.207950
H      0.637893    -1.409834     0.089591
H      1.664714     1.119408     0.221860
9
Iteration 5, Energy=-154.0882517184, |grad|=0.022902
C     -0.998981     0.001702     0.027031
C      0.471775    -0.363434    -0.156570
O      1.317151     0.378549     0.678962
H     -1.324195     0.785095    -0.656904
H     -1.627002    -0.882568    -0.114909
H     -1.155322     0.352156     1.050608
H      0.753989    -0.240686    -1.211802
H      0.626721    -1.408034     0.102629
H      1.648968     1.128399     0.218907
9
Iteration 6, Energy=-154.0884827997, |grad|=0.021905
C     -0.995232     0.004473     0.029006
C      0.470173    -0.365235    -0.156167
O      1.321251     0.376175     0.672164
H     -1.314074     0.800006    -0.648983
H     -1.615369    -0.883050    -0.130675
H     -1.152855     0.339798     1.055164
H      0.748986    -0.254697    -1.212145
H      0.616170    -1.408357     0.115376
H      1.634054     1.142065     0.214212
9
Iteration 7, Energy=-154.0888601046, |grad|=0.032913
C     -0.990149     0.008558     0.033490
C      0.467991    -0.370811    -0.152678
O      1.334694     0.376282     0.657195
H     -1.298430     0.822711    -0.632444
H     -1.602207    -0.879541    -0.164753
H     -1.148895     0.318693     1.065630
H      0.743778    -0.282942    -1.210379
H      0.599064    -1.410513     0.135174
H      1.607260     1.168741     0.206718
9
Iteration 8, Energy=-154.0893195852, |grad|=0.044463
C     -0.985413     0.011347     0.037821
C      0.469306    -0.374886    -0.147850
O      1.353803     0.378296     0.636523
H     -1.281348     0.846229    -0.608503
H     -1.594248    -0.866566    -0.208816
H     -1.146887     0.292174     1.078829
H      0.740742    -0.320600    -1.206905
H      0.583455    -1.415036     0.159344
H      1.573696     1.200220     0.197511
9
Iteration 9, Energy=-154.0898883061, |grad|=0.052668
C     -0.973881     0.015611     0.048345
C      0.471242    -0.390167    -0.142286
O      1.382171     0.389917     0.605402
H     -1.260726     0.878285    -0.573021
H     -1.594307    -0.839480    -0.269872
H     -1.149597     0.251559     1.091973
H      0.740726    -0.374879    -1.202514
H      0.571382    -1.414716     0.193520
H      1.526096     1.235049     0.186408
9
Iteration 10, Energy=-154.0907480101, |grad|=0.030035
C     -0.970059     0.014356     0.044786
C      0.478637    -0.390719    -0.140298
O      1.396020     0.395022     0.585790
H     -1.248326     0.894263    -0.547290
H     -1.600447    -0.811986    -0.301601
H     -1.156577     0.225705     1.100822
H      0.742666    -0.408609    -1.200754
H      0.574386    -1.416813     0.217693
H      1.496805     1.249960     0.178806
9
Iteration 1, Energy=-154.0907531170, |grad|=0.030487
C     -0.970019     0.014361     0.044785
C      0.478466    -0.390711    -0.140274
O      1.396021     0.394968     0.585764
H     -1.248067     0.894713    -0.547154
H     -1.600561    -0.811974    -0.301822
H     -1.156583     0.225317     1.100829
H      0.742702    -0.408890    -1.200777
H      0.574446    -1.416798     0.218136
H      1.496414     1.250091     0.178694
9
Iteration 2, Energy=-154.0907527612, |grad|=0.030715
C     -0.970026     0.014466     0.044738
C      0.478434    -0.390651    -0.140115
O      1.395999     0.394914     0.585527
H     -1.247883     0.894982    -0.546896
H     -1.600459    -0.812020    -0.302230
H     -1.156572     0.225062     1.100978
H      0.742654    -0.409206    -1.200812
H      0.574308    -1.416772     0.218457
H      1.496067     1.250414     0.178610
9
Iteration -1, Energy=-154.0907480101, |grad|=0.030035
C     -0.970059     0.014356     0.044786
C      0.478637    -0.390719    -0.140298
O      1.396020     0.395022     0.585790
H     -1.248326     0.894263    -0.547290
H     -1.600447    -0.811986    -0.301601
H     -1.156577     0.225705     1.100822
H      0.742666    -0.408609    -1.200754
H      0.574386    -1.416813     0.217693
H      1.496805     1.249960     0.178806
9
Iteration 1, Energy=-154.0909932601, |grad|=0.026336
C     -0.971403     0.016724     0.040361
C      0.482333    -0.390454    -0.139283
O      1.393908     0.397022     0.582166
H     -1.246138     0.894868    -0.544546
H     -1.602621    -0.809578    -0.298248
H     -1.159177     0.223478     1.099262
H      0.742639    -0.408483    -1.202728
H      0.580059    -1.414976     0.220400
H      1.493505     1.242577     0.180568
9
Iteration 2, Energy=-154.0911885345, |grad|=0.021071
C     -0.970902     0.017351     0.038647
C      0.484037    -0.390042    -0.140131
O      1.391996     0.393841     0.582104
H     -1.244198     0.897272    -0.542866
H     -1.605406    -0.807253    -0.295214
H     -1.161940     0.221117     1.096747
H      0.742748    -0.408528    -1.204309
H      0.586363    -1.413089     0.223520
H      1.490407     1.240510     0.179456
9
Iteration 3, Energy=-154.0915033127, |grad|=0.017289
C     -0.965994     0.016831     0.035889
C      0.483502    -0.395537    -0.146095
O      1.389723     0.388477     0.583791
H     -1.236169     0.910339    -0.537886
H     -1.618384    -0.798075    -0.285065
H     -1.173024     0.211823     1.086796
H      0.744097    -0.409087    -1.210420
H      0.612237    -1.405094     0.235168
H      1.477118     1.231502     0.175776
9
Iteration 4, Energy=-154.0915821549, |grad|=0.022192
C     -0.970179     0.017209     0.032713
C      0.485543    -0.398520    -0.143375
O      1.389407     0.386646     0.583458
H     -1.230029     0.912129    -0.534877
H     -1.624366    -0.794623    -0.287342
H     -1.174498     0.210488     1.089892
H      0.745327    -0.411125    -1.211491
H      0.618692    -1.408564     0.236425
H      1.473206     1.237538     0.172549
9
Iteration 5, Energy=-154.0916500633, |grad|=0.013078
C     -0.970030     0.016376     0.034832
C      0.485215    -0.398306    -0.143579
O      1.389814     0.388728     0.582531
H     -1.229367     0.912252    -0.535210
H     -1.625062    -0.794713    -0.289365
H     -1.173747     0.210851     1.090405
H      0.745416    -0.411825    -1.210286
H      0.617749    -1.410460     0.235747
H      1.473117     1.238275     0.172877
9
Iteration 6, Energy=-154.0917630566, |grad|=0.008579
C     -0.970226     0.014128     0.038200
C      0.485305    -0.400907    -0.142938
O      1.389976     0.393382     0.579203
H     -1.222345     0.915227    -0.533092
H     -1.632378    -0.790986    -0.295010
H     -1.174228     0.209457     1.092053
H      0.746368    -0.415330    -1.208136
H      0.622580    -1.415551     0.236040
H      1.468052     1.241759     0.171634
9
Iteration 7, Energy=-154.0918541974, |grad|=0.012204
C     -0.969979     0.011457     0.040128
C      0.485901    -0.405394    -0.141641
O      1.389155     0.397566     0.575094
H     -1.211340     0.919141    -0.528353
H     -1.642428    -0.783755    -0.301387
H     -1.175975     0.206296     1.093801
H      0.747310    -0.420522    -1.205909
H      0.631259    -1.420030     0.237405
H      1.459201     1.246418     0.168816
9
Iteration 8, Energy=-154.0919934398, |grad|=0.012574
C     -0.967256     0.007870     0.042881
C      0.486462    -0.411170    -0.139479
O      1.386686     0.403158     0.569363
H     -1.192230     0.922245    -0.517972
H     -1.652830    -0.769205    -0.312418
H     -1.177166     0.199190     1.095023
H      0.746677    -0.431041    -1.202385
H      0.640966    -1.423251     0.239900
H      1.441795     1.253383     0.163039
9
Iteration 9, Energy=-154.0920749620, |grad|=0.028141
C     -0.957422     0.001785     0.043378
C      0.490703    -0.419179    -0.134288
O      1.381005     0.412012     0.557938
H     -1.155238     0.940474    -0.499230
H     -1.665413    -0.745205    -0.336432
H     -1.178546     0.180239     1.105824
H      0.742730    -0.453802    -1.203198
H      0.655079    -1.429923     0.253885
H      1.400206     1.264779     0.150076
9
Iteration 10, Energy=-154.0922634589, |grad|=0.010463
C     -0.957474     0.005372     0.045612
C      0.492146    -0.424353    -0.135281
O      1.379881     0.413988     0.555689
H     -1.145592     0.941166    -0.491602
H     -1.662790    -0.738092    -0.342645
H     -1.176870     0.173323     1.104001
H      0.740404    -0.460378    -1.201995
H      0.655043    -1.427128     0.257683
H      1.388358     1.267282     0.146490
9
Iteration 1, Energy=-154.0922652129, |grad|=0.013505
C     -0.956514     0.005374     0.045453
C      0.492436    -0.424524    -0.134551
O      1.379856     0.413894     0.555423
H     -1.145558     0.942950    -0.491551
H     -1.662370    -0.738099    -0.344296
H     -1.176919     0.171048     1.105268
H      0.740403    -0.460548    -1.202071
H      0.654307    -1.426738     0.259415
H      1.388327     1.268158     0.146480
9
Iteration 2, Energy=-154.0922589788, |grad|=0.013948
C     -0.956443     0.005757     0.045452
C      0.492422    -0.424152    -0.134530
O      1.380532     0.413619     0.556137
H     -1.147963     0.942509    -0.492978
H     -1.661891    -0.739535    -0.343517
H     -1.176843     0.171158     1.105173
H      0.740554    -0.458812    -1.202041
H      0.653945    -1.426504     0.259495
H      1.391460     1.267801     0.147454
9
Iteration -1, Energy=-154.0922634589, |grad|=0.010463
C     -0.957474     0.005372     0.045612
C      0.492146    -0.424353    -0.135281
O      1.379881     0.413988     0.555689
H     -1.145592     0.941166    -0.491602
H     -1.662790    -0.738092    -0.342645
H     -1.176870     0.173323     1.104001
H      0.740404    -0.460378    -1.201995
H      0.655043    -1.427128     0.257683
H      1.388358     1.267282     0.146490
9
Iteration 1, Energy=-154.0923079064, |grad|=0.008952
C     -0.958996     0.006406     0.044803
C      0.489773    -0.423270    -0.135585
O      1.381283     0.414339     0.554165
H     -1.146002     0.941505    -0.489892
H     -1.659046    -0.737733    -0.342443
H     -1.175964     0.171797     1.102317
H      0.740655    -0.460907    -1.202393
H      0.653953    -1.427096     0.259838
H      1.387448     1.266136     0.147143
9
Iteration 2, Energy=-154.0923478968, |grad|=0.008779
C     -0.959218     0.008089     0.044175
C      0.488082    -0.422714    -0.135768
O      1.382525     0.412278     0.552532
H     -1.147094     0.943048    -0.487887
H     -1.654738    -0.738314    -0.342947
H     -1.175000     0.169639     1.100724
H      0.740660    -0.461774    -1.202614
H      0.651779    -1.425834     0.262656
H      1.386108     1.266759     0.147082
9
Iteration 3, Energy=-154.0924156783, |grad|=0.009443
C     -0.957566     0.011287     0.042707
C      0.486393    -0.422540    -0.136608
O      1.385431     0.410131     0.547466
H     -1.150373     0.948401    -0.483826
H     -1.645811    -0.740725    -0.345290
H     -1.173340     0.164698     1.098961
H      0.740044    -0.464318    -1.202639
H      0.645492    -1.422045     0.269065
H      1.382836     1.266290     0.148117
9
Iteration 4, Energy=-154.0924285113, |grad|=0.022352
C     -0.956083     0.013524     0.039042
C      0.489254    -0.416981    -0.139178
O      1.392787     0.406011     0.541016
H     -1.156229     0.958443    -0.477165
H     -1.632245    -0.743846    -0.351976
H     -1.171664     0.156477     1.100782
H      0.737921    -0.472119    -1.203917
H      0.632908    -1.418809     0.280604
H      1.376457     1.268479     0.148744
9
Iteration 5, Energy=-154.0924986583, |grad|=0.005597
C     -0.954871     0.014776     0.040790
C      0.489395    -0.420244    -0.137861
O      1.392751     0.408009     0.541115
H     -1.156071     0.957549    -0.477560
H     -1.634489    -0.744264    -0.352809
H     -1.172012     0.156807     1.100614
H      0.738147    -0.472173    -1.204347
H      0.633234    -1.417602     0.278876
H      1.377021     1.268321     0.149134
9
Iteration 6, Energy=-154.0925107498, |grad|=0.004256
C     -0.954349     0.014612     0.041397
C      0.490202    -0.420606    -0.137672
O      1.393669     0.409029     0.540913
H     -1.156280     0.957628    -0.477324
H     -1.635137    -0.743946    -0.354168
H     -1.172406     0.156484     1.101388
H      0.738025    -0.473483    -1.204592
H      0.632528    -1.417469     0.278698
H      1.376854     1.268928     0.149313
9
Iteration 7, Energy=-154.0925286657, |grad|=0.005035
C     -0.953499     0.014652     0.042180
C      0.491415    -0.420535    -0.137471
O      1.396295     0.410343     0.539210
H     -1.157034     0.958207    -0.475548
H     -1.634666    -0.742695    -0.357740
H     -1.173123     0.154597     1.102734
H      0.737735    -0.477398    -1.204877
H      0.630171    -1.416987     0.279701
H      1.375813     1.270995     0.149763
9
Iteration 8, Energy=-154.0925529210, |grad|=0.005192
C     -0.952588     0.014584     0.043385
C      0.492177    -0.420413    -0.137331
O      1.399517     0.411667     0.534853
H     -1.157422     0.959027    -0.471980
H     -1.633502    -0.739197    -0.363181
H     -1.174582     0.150848     1.103882
H      0.737439    -0.483843    -1.204153
H      0.628019    -1.416168     0.281869
H      1.374047     1.274674     0.150609
9
Iteration 9, Energy=-154.0925636927, |grad|=0.013079
C     -0.951058     0.017200     0.041782
C      0.492107    -0.420538    -0.136141
O      1.406804     0.413333     0.526050
H     -1.156126     0.963319    -0.462605
H     -1.631157    -0.733229    -0.374260
H     -1.178221     0.141011     1.106952
H      0.736149    -0.497045    -1.204865
H      0.626482    -1.414270     0.289818
H      1.368123     1.281399     0.151222
9
Iteration 10, Energy=-154.0925967604, |grad|=0.004624
C     -0.951774     0.016153     0.043868
C      0.492277    -0.420701    -0.136924
O      1.407015     0.413622     0.523529
H     -1.154993     0.964630    -0.461095
H     -1.630982    -0.730538    -0.376091
H     -1.179068     0.138908     1.105574
H      0.735872    -0.499474    -1.203590
H      0.627702    -1.413985     0.291314
H      1.367057     1.282564     0.151369
9
Iteration 1, Energy=-154.0925986447, |grad|=0.006207
C     -0.951284     0.016320     0.043663
C      0.492240    -0.421050    -0.136699
O      1.407836     0.413645     0.522321
H     -1.154753     0.965828    -0.459029
H     -1.630982    -0.729504    -0.378293
H     -1.179156     0.137093     1.105990
H      0.735697    -0.501466    -1.203652
H      0.627532    -1.413971     0.292853
H      1.365248     1.283623     0.151435
9
Iteration 2, Energy=-154.0926012851, |grad|=0.006822
C     -0.951073     0.015871     0.043861
C      0.492396    -0.421249    -0.136642
O      1.408294     0.413649     0.521140
H     -1.154208     0.966525    -0.457708
H     -1.631577    -0.728640    -0.379830
H     -1.178842     0.135709     1.106217
H      0.735564    -0.503193    -1.203478
H      0.628084    -1.414280     0.293855
H      1.364220     1.284339     0.151346
9
Iteration -1, Energy=-154.0925967604, |grad|=0.004624
C     -0.951774     0.016153     0.043868
C      0.492277    -0.420701    -0.136924
O      1.407015     0.413622     0.523529
H     -1.154993     0.964630    -0.461095
H     -1.630982    -0.730538    -0.376091
H     -1.179068     0.138908     1.105574
H      0.735872    -0.499474    -1.203590
H      0.627702    -1.413985     0.291314
H      1.367057     1.282564     0.151369
9
Iteration 1, Energy=-154.0926072153, |grad|=0.005691
C     -0.952104     0.015356     0.044253
C      0.492899    -0.421237    -0.137148
O      1.405571     0.413561     0.522843
H     -1.153547     0.966372    -0.460737
H     -1.631117    -0.730101    -0.375703
H     -1.179285     0.138247     1.104328
H      0.735265    -0.498821    -1.203102
H      0.629296    -1.413405     0.292301
H      1.366126     1.281208     0.150918
9
Iteration 2, Energy=-154.0926174261, |grad|=0.004020
C     -0.951815     0.015480     0.043624
C      0.492627    -0.421669    -0.137008
O      1.404669     0.412938     0.522862
H     -1.151993     0.967323    -0.459998
H     -1.631565    -0.729913    -0.375550
H     -1.179623     0.137618     1.103835
H      0.734786    -0.498316    -1.203067
H      0.630924    -1.413082     0.293245
H      1.365096     1.280800     0.150010
9
Iteration 3, Energy=-154.0926288694, |grad|=0.004831
C     -0.951260     0.015976     0.042210
C      0.491322    -0.423119    -0.136743
O      1.403101     0.413377     0.523191
H     -1.147306     0.969473    -0.457769
H     -1.633073    -0.729132    -0.375739
H     -1.180578     0.135847     1.102818
H      0.733585    -0.497334    -1.203390
H      0.635223    -1.412838     0.295713
H      1.362090     1.278929     0.147662
9
Iteration 4, Energy=-154.0926348965, |grad|=0.004731
C     -0.951700     0.015466     0.042582
C      0.491694    -0.423416    -0.136429
O      1.402474     0.412987     0.523821
H     -1.144822     0.970378    -0.456826
H     -1.633897    -0.728099    -0.376556
H     -1.180997     0.135022     1.102582
H      0.733114    -0.497434    -1.203603
H      0.636763    -1.413256     0.296553
H      1.360475     1.279530     0.145829
9
Iteration 5, Energy=-154.0926396944, |grad|=0.003884
C     -0.951767     0.015237     0.042877
C      0.491959    -0.423619    -0.136163
O      1.402419     0.413623     0.523854
H     -1.144020     0.970353    -0.456500
H     -1.634282    -0.727547    -0.377251
H     -1.181169     0.134801     1.102926
H      0.733074    -0.497771    -1.203643
H      0.636880    -1.413594     0.296507
H      1.360011     1.279695     0.145345
9
Iteration 6, Energy=-154.0926608618, |grad|=0.003210
C     -0.951015     0.013268     0.044901
C      0.493186    -0.425523    -0.134651
O      1.400522     0.418042     0.523512
H     -1.135530     0.971174    -0.452674
H     -1.637858    -0.722252    -0.383213
H     -1.183126     0.131959     1.105232
H      0.732308    -0.500284    -1.202575
H      0.639713    -1.416140     0.297238
H      1.354906     1.280934     0.140182
9
Iteration 7, Energy=-154.0926654463, |grad|=0.005997
C     -0.951105     0.012556     0.045424
C      0.493211    -0.427692    -0.132405
O      1.398443     0.419922     0.521838
H     -1.129839     0.971725    -0.449132
H     -1.638936    -0.717779    -0.386732
H     -1.184271     0.129117     1.105850
H      0.732242    -0.502130    -1.201397
H      0.642011    -1.416568     0.297872
H      1.351349     1.282028     0.136633
9
Iteration 8, Energy=-154.0926714612, |grad|=0.002389
C     -0.950530     0.012353     0.045801
C      0.492790    -0.427501    -0.132887
O      1.398077     0.420357     0.521502
H     -1.128473     0.972271    -0.448195
H     -1.639329    -0.716857    -0.387757
H     -1.184649     0.128198     1.105909
H      0.732164    -0.502742    -1.200643
H      0.642744    -1.417062     0.298540
H      1.350312     1.282161     0.135681
9
Iteration 9, Energy=-154.0926742712, |grad|=0.002048
C     -0.950133     0.012406     0.045911
C      0.492350    -0.427532    -0.133080
O      1.397772     0.420462     0.520811
H     -1.127641     0.972923    -0.447138
H     -1.639248    -0.715962    -0.388625
H     -1.184924     0.127062     1.105836
H      0.732269    -0.503520    -1.199912
H      0.643207    -1.417063     0.299224
H      1.349453     1.282402     0.134925
9
Iteration 10, Energy=-154.0926777577, |grad|=0.002968
C     -0.949757     0.012576     0.045982
C      0.492041    -0.427701    -0.133085
O      1.397602     0.420732     0.519740
H     -1.126712     0.974066    -0.445480
H     -1.639017    -0.714694    -0.390085
H     -1.185309     0.125218     1.105889
H      0.732497    -0.504962    -1.199166
H      0.643543    -1.416882     0.300293
H      1.348216     1.282824     0.133864
9
Iteration 1, Energy=-154.0926784612, |grad|=0.002903
C     -0.949796     0.012470     0.046034
C      0.492067    -0.427781    -0.133016
O      1.397660     0.420956     0.519468
H     -1.126358     0.974233    -0.445187
H     -1.639247    -0.714440    -0.390410
H     -1.185412     0.124876     1.105916
H      0.732480    -0.505318    -1.199163
H      0.643673    -1.416978     0.300550
H      1.348062     1.282918     0.133807
9
Iteration 2, Energy=-154.0926784520, |grad|=0.003340
C     -0.949630     0.012547     0.046087
C      0.491945    -0.427786    -0.133054
O      1.397432     0.420948     0.519226
H     -1.126303     0.974386    -0.444848
H     -1.639009    -0.714122    -0.390710
H     -1.185465     0.124513     1.105912
H      0.732548    -0.505552    -1.198845
H      0.643702    -1.416869     0.300614
H      1.347817     1.282991     0.133542
9
Iteration -1, Energy=-154.0926784612, |grad|=0.002903
C     -0.949796     0.012470     0.046034
C      0.492067    -0.427781    -0.133016
O      1.397660     0.420956     0.519468
H     -1.126358     0.974233    -0.445187
H     -1.639247    -0.714440    -0.390410
H     -1.185412     0.124876     1.105916
H      0.732480    -0.505318    -1.199163
H      0.643673    -1.416978     0.300550
H      1.348062     1.282918     0.133807
9
Iteration 1, Energy=-154.0926804027, |grad|=0.001891
C     -0.950037     0.012606     0.045862
C      0.492415    -0.428039    -0.132717
O      1.397863     0.420981     0.519461
H     -1.126539     0.974449    -0.445021
H     -1.639131    -0.714481    -0.390525
H     -1.185408     0.124683     1.105993
H      0.732489    -0.505521    -1.199510
H      0.643462    -1.416683     0.300671
H      1.348014     1.282943     0.133786
9
Iteration 2, Energy=-154.0926825301, |grad|=0.002070
C     -0.950204     0.012783     0.045712
C      0.492828    -0.428057    -0.132649
O      1.398350     0.421014     0.519467
H     -1.126947     0.974971    -0.444681
H     -1.638933    -0.714606    -0.390837
H     -1.185428     0.124244     1.106068
H      0.732494    -0.506006    -1.199956
H      0.643072    -1.416371     0.301138
H      1.347894     1.282965     0.133737
9
Iteration 3, Energy=-154.0926867009, |grad|=0.002610
C     -0.950171     0.013289     0.045360
C      0.493408    -0.427820    -0.132808
O      1.399548     0.421111     0.519096
H     -1.128113     0.976272    -0.443583
H     -1.638281    -0.714836    -0.391770
H     -1.185505     0.122931     1.106127
H      0.732564    -0.507382    -1.200685
H      0.642039    -1.415609     0.302552
H      1.347639     1.282982     0.133710
9
Iteration 4, Energy=-154.0926910759, |grad|=0.005045
C     -0.950196     0.013916     0.044940
C      0.494038    -0.427245    -0.133217
O      1.401321     0.420322     0.517519
H     -1.130333     0.978514    -0.441087
H     -1.636317    -0.714497    -0.393658
H     -1.185580     0.120076     1.105724
H      0.732848    -0.510160    -1.201046
H      0.640020    -1.413921     0.305325
H      1.347329     1.283931     0.133500
9
Iteration 5, Energy=-154.0926959920, |grad|=0.002657
C     -0.949716     0.014674     0.044543
C      0.493908    -0.426908    -0.133627
O      1.402767     0.420883     0.515618
H     -1.132059     0.980102    -0.438891
H     -1.634803    -0.714216    -0.395413
H     -1.185709     0.117655     1.105489
H      0.733122    -0.512465    -1.201076
H      0.638405    -1.412651     0.307576
H      1.347215     1.283864     0.133780
9
Iteration 6, Energy=-154.0926982453, |grad|=0.001385
C     -0.949346     0.014838     0.044543
C      0.493372    -0.426714    -0.133730
O      1.402856     0.420819     0.514778
H     -1.132222     0.980142    -0.438220
H     -1.634398    -0.713862    -0.396044
H     -1.185791     0.116981     1.105425
H      0.733220    -0.513033    -1.200541
H      0.638142    -1.412482     0.308037
H      1.347295     1.284249     0.133752
9
Iteration 7, Energy=-154.0926996069, |grad|=0.001348
C     -0.949265     0.014728     0.044773
C      0.492998    -0.426602    -0.133767
O      1.402925     0.420934     0.513849
H     -1.132103     0.980231    -0.437557
H     -1.634011    -0.713260    -0.396908
H     -1.185944     0.116208     1.105438
H      0.733225    -0.513689    -1.199875
H      0.637918    -1.412395     0.308442
H      1.347387     1.284782     0.133604
9
Iteration 8, Energy=-154.0927009400, |grad|=0.001637
C     -0.949139     0.014811     0.044899
C      0.492782    -0.426566    -0.133532
O      1.403211     0.421202     0.513013
H     -1.131786     0.980423    -0.436657
H     -1.633819    -0.712664    -0.398201
H     -1.186285     0.115151     1.105749
H      0.733106    -0.514618    -1.199479
H      0.637688    -1.412286     0.309000
H      1.347371     1.285485     0.133207
9
Iteration 9, Energy=-154.0927034405, |grad|=0.001781
C     -0.949239     0.014603     0.045419
C      0.492744    -0.426622    -0.133073
O      1.403791     0.422128     0.511505
H     -1.130729     0.981068    -0.434854
H     -1.633546    -0.711214    -0.400940
H     -1.187168     0.112910     1.106356
H      0.732632    -0.516523    -1.198775
H      0.637436    -1.412119     0.310174
H      1.347205     1.286707     0.132187
9
Iteration 10, Energy=-154.0927081935, |grad|=0.002452
C     -0.948853     0.014460     0.045890
C      0.492855    -0.426912    -0.132063
O      1.404333     0.423674     0.509344
H     -1.127910     0.982736    -0.430767
H     -1.633319    -0.708278    -0.405694
H     -1.189583     0.108346     1.106954
H      0.731274    -0.519755    -1.198066
H      0.638167    -1.411436     0.313018
H      1.346163     1.288102     0.129385
9
Iteration 1, Energy=-154.0927081446, |grad|=0.002857
C     -0.948783     0.014456     0.045907
C      0.492802    -0.426972    -0.132015
O      1.404472     0.423834     0.508941
H     -1.127722     0.983079    -0.430024
H     -1.633232    -0.707718    -0.406625
H     -1.189705     0.107472     1.106996
H      0.731360    -0.520439    -1.197859
H      0.638143    -1.411314     0.313530
H      1.346029     1.288431     0.128974
9
Iteration 2, Energy=-154.0927080407, |grad|=0.003050
C     -0.948746     0.014440     0.045980
C      0.492777    -0.426968    -0.131919
O      1.404592     0.424015     0.508691
H     -1.127495     0.983220    -0.429625
H     -1.633162    -0.707414    -0.407208
H     -1.189954     0.106969     1.107086
H      0.731228    -0.520805    -1.197723
H      0.638132    -1.411241     0.313816
H      1.346061     1.288657     0.128715
9
Iteration -1, Energy=-154.0927081935, |grad|=0.002452
C     -0.948853     0.014460     0.045890
C      0.492855    -0.426912    -0.132063
O      1.404333     0.423674     0.509344
H     -1.127910     0.982736    -0.430767
H     -1.633319    -0.708278    -0.405694
H     -1.189583     0.108346     1.106954
H      0.731274    -0.519755    -1.198066
H      0.638167    -1.411436     0.313018
H      1.346163     1.288102     0.129385
9
Iteration 1, Energy=-154.0927093623, |grad|=0.001409
C     -0.949109     0.014323     0.046009
C      0.493101    -0.427104    -0.132128
O      1.404342     0.423913     0.509452
H     -1.127826     0.983008    -0.430755
H     -1.633293    -0.708233    -0.405628
H     -1.189635     0.108308     1.106808
H      0.731218    -0.519704    -1.198182
H      0.638276    -1.411356     0.313102
H      1.346056     1.287780     0.129322
9
Iteration 2, Energy=-154.0927101707, |grad|=0.001300
C     -0.949251     0.014269     0.046017
C      0.493333    -0.427211    -0.132154
O      1.404318     0.423914     0.509719
H     -1.127669     0.983333    -0.430658
H     -1.633347    -0.708232    -0.405563
H     -1.189764     0.108240     1.106688
H      0.731149    -0.519624    -1.198388
H      0.638513    -1.411304     0.313276
H      1.345846     1.287552     0.129062
9
Iteration 3, Energy=-154.0927113643, |grad|=0.001484
C     -0.949179     0.014378     0.045814
C      0.493583    -0.427399    -0.132131
O      1.404133     0.424047     0.510256
H     -1.127170     0.984000    -0.430241
H     -1.633617    -0.708279    -0.405476
H     -1.190184     0.108028     1.106493
H      0.731017    -0.519380    -1.198840
H      0.639254    -1.411253     0.313751
H      1.345291     1.286797     0.128373
9
Iteration 4, Energy=-154.0927119508, |grad|=0.001813
C     -0.949155     0.014289     0.045791
C      0.493707    -0.427545    -0.132094
O      1.403628     0.423684     0.510597
H     -1.126507     0.984514    -0.429710
H     -1.633757    -0.707999    -0.405480
H     -1.190583     0.107767     1.106165
H      0.730977    -0.519097    -1.198797
H      0.640051    -1.411222     0.314115
H      1.344767     1.286546     0.127411
9
Iteration 5, Energy=-154.0927124700, |grad|=0.000941
C     -0.949030     0.014343     0.045719
C      0.493554    -0.427590    -0.132003
O      1.403511     0.423820     0.510512
H     -1.126348     0.984473    -0.429561
H     -1.633816    -0.707920    -0.405564
H     -1.190659     0.107707     1.106199
H      0.731015    -0.519061    -1.198716
H      0.640178    -1.411262     0.314123
H      1.344722     1.286427     0.127290
9
Iteration 6, Energy=-154.0927129974, |grad|=0.000842
C     -0.948882     0.014335     0.045696
C      0.493305    -0.427715    -0.131832
O      1.403158     0.424009     0.510378
H     -1.125859     0.984470    -0.429168
H     -1.633936    -0.707614    -0.405806
H     -1.190862     0.107516     1.106193
H      0.731103    -0.518963    -1.198432
H      0.640544    -1.411368     0.314161
H      1.344556     1.286268     0.126810
9
Iteration 7, Energy=-154.0927134658, |grad|=0.001056
C     -0.948861     0.014234     0.045778
C      0.493168    -0.427876    -0.131641
O      1.402801     0.424251     0.510322
H     -1.125243     0.984543    -0.428731
H     -1.634104    -0.707218    -0.406172
H     -1.191099     0.107256     1.106224
H      0.731190    -0.518902    -1.198137
H      0.640928    -1.411523     0.314205
H      1.344348     1.286172     0.126152
9
Iteration 8, Energy=-154.0927145908, |grad|=0.001186
C     -0.948911     0.013875     0.046116
C      0.493089    -0.428244    -0.131096
O      1.402020     0.425086     0.510366
H     -1.123550     0.984819    -0.427586
H     -1.634710    -0.706131    -0.407451
H     -1.191754     0.106402     1.106567
H      0.731363    -0.518978    -1.197496
H      0.641744    -1.412019     0.314339
H      1.343836     1.286127     0.124241
9
Iteration 9, Energy=-154.0927156227, |grad|=0.001139
C     -0.949029     0.013575     0.046528
C      0.493153    -0.428592    -0.130678
O      1.401335     0.426162     0.510470
H     -1.121915     0.985269    -0.425903
H     -1.635067    -0.704575    -0.409067
H     -1.192496     0.104558     1.106629
H      0.731318    -0.519712    -1.197071
H      0.642264    -1.411983     0.315055
H      1.343565     1.286236     0.122036
9
Iteration 10, Energy=-154.0927162881, |grad|=0.001336
C     -0.948993     0.012944     0.046778
C      0.493397    -0.428510    -0.130248
O      1.400699     0.427211     0.510296
H     -1.120540     0.986190    -0.424240
H     -1.635439    -0.703109    -0.410990
H     -1.193267     0.102444     1.107091
H      0.731225    -0.520738    -1.196650
H      0.642528    -1.411964     0.316055
H      1.343517     1.286470     0.119907
9
Iteration 1, Energy=-154.0927161385, |grad|=0.001311
C     -0.948965     0.012901     0.046863
C      0.493391    -0.428711    -0.130121
O      1.400599     0.427478     0.510269
H     -1.120197     0.986295    -0.424105
H     -1.635493    -0.702900    -0.411156
H     -1.193363     0.102346     1.107060
H      0.730902    -0.520832    -1.196584
H      0.642945    -1.411947     0.316124
H      1.343286     1.286526     0.119400
9
Iteration 2, Energy=-154.0927160649, |grad|=0.001356
C     -0.948967     0.012823     0.046910
C      0.493397    -0.428769    -0.130033
O      1.400424     0.427634     0.510357
H     -1.119846     0.986465    -0.423766
H     -1.635618    -0.702632    -0.411464
H     -1.193549     0.101939     1.107090
H      0.730890    -0.520936    -1.196512
H      0.643127    -1.411985     0.316316
H      1.343202     1.286494     0.118985
9
Iteration -1, Energy=-154.0927161385, |grad|=0.001311
C     -0.948965     0.012901     0.046863
C      0.493391    -0.428711    -0.130121
O      1.400599     0.427478     0.510269
H     -1.120197     0.986295    -0.424105
H     -1.635493    -0.702900    -0.411156
H     -1.193363     0.102346     1.107060
H      0.730902    -0.520832    -1.196584
H      0.642945    -1.411947     0.316124
H      1.343286     1.286526     0.119400
9
Iteration 1, Energy=-154.0927163718, |grad|=0.000786
C     -0.948957     0.013058     0.046832
C      0.493384    -0.428712    -0.130127
O      1.400620     0.427401     0.510247
H     -1.120225     0.986266    -0.424048
H     -1.635512    -0.702979    -0.411201
H     -1.193367     0.102314     1.107073
H      0.730921    -0.520843    -1.196587
H      0.642938    -1.411926     0.316172
H      1.343302     1.286577     0.119389
9
Iteration 2, Energy=-154.0927166139, |grad|=0.000662
C     -0.948986     0.013288     0.046770
C      0.493345    -0.428700    -0.130159
O      1.400710     0.427314     0.510129
H     -1.120335     0.986301    -0.423922
H     -1.635499    -0.703136    -0.411300
H     -1.193374     0.102225     1.107091
H      0.730981    -0.520883    -1.196596
H      0.642898    -1.411861     0.316321
H      1.343365     1.286608     0.119417
9
Iteration 3, Energy=-154.0927168582, |grad|=0.000860
C     -0.949066     0.013433     0.046703
C      0.493296    -0.428658    -0.130207
O      1.400867     0.427190     0.509947
H     -1.120533     0.986454    -0.423764
H     -1.635416    -0.703298    -0.411422
H     -1.193386     0.102087     1.107094
H      0.731067    -0.520963    -1.196613
H      0.642808    -1.411739     0.316551
H      1.343468     1.286651     0.119462
9
Iteration 4, Energy=-154.0927173548, |grad|=0.001027
C     -0.949242     0.013672     0.046546
C      0.493200    -0.428570    -0.130330
O      1.401339     0.427021     0.509414
H     -1.121148     0.986908    -0.423324
H     -1.635122    -0.703636    -0.411752
H     -1.193445     0.101672     1.107057
H      0.731261    -0.521244    -1.196655
H      0.642477    -1.411334     0.317161
H      1.343785     1.286667     0.119633
9
Iteration 5, Energy=-154.0927175786, |grad|=0.001255
C     -0.949304     0.013672     0.046469
C      0.493208    -0.428364    -0.130421
O      1.401671     0.426768     0.509165
H     -1.121606     0.987194    -0.423023
H     -1.634859    -0.703715    -0.411964
H     -1.193517     0.101350     1.106992
H      0.731324    -0.521519    -1.196677
H      0.642188    -1.411074     0.317562
H      1.343999     1.286845     0.119647
9
Iteration 6, Energy=-154.0927178650, |grad|=0.000662
C     -0.949331     0.013680     0.046414
C      0.493219    -0.428291    -0.130468
O      1.401975     0.426799     0.508882
H     -1.122022     0.987424    -0.422752
H     -1.634618    -0.703754    -0.412160
H     -1.193591     0.101049     1.106923
H      0.731360    -0.521780    -1.196703
H      0.641899    -1.410800     0.317875
H      1.344214     1.286830     0.119740
9
Iteration 7, Energy=-154.0927180661, |grad|=0.000414
C     -0.949261     0.013630     0.046411
C      0.493294    -0.428196    -0.130479
O      1.402231     0.426902     0.508716
H     -1.122391     0.987529    -0.422515
H     -1.634371    -0.703635    -0.412349
H     -1.193699     0.100732     1.106843
H      0.731300    -0.522094    -1.196717
H      0.641587    -1.410572     0.318078
H      1.344415     1.286860     0.119763
9
Iteration 8, Energy=-154.0927181641, |grad|=0.000414
C     -0.949173     0.013631     0.046434
C      0.493363    -0.428123    -0.130458
O      1.402354     0.426995     0.508670
H     -1.122574     0.987517    -0.422376
H     -1.634222    -0.703494    -0.412497
H     -1.193793     0.100504     1.106818
H      0.731211    -0.522322    -1.196712
H      0.641398    -1.410479     0.318153
H      1.344541     1.286927     0.119717
9
Iteration 9, Energy=-154.0927182857, |grad|=0.000284
C     -0.949112     0.013709     0.046516
C      0.493405    -0.428057    -0.130387
O      1.402458     0.427137     0.508596
H     -1.122704     0.987531    -0.422190
H     -1.634023    -0.703306    -0.412817
H     -1.193959     0.100117     1.106880
H      0.731069    -0.522628    -1.196653
H      0.641231    -1.410421     0.318258
H      1.344739     1.287073     0.119549
9
Iteration 10, Energy=-154.0927183910, |grad|=0.000432
C     -0.949072     0.013760     0.046553
C      0.493377    -0.427933    -0.130252
O      1.402494     0.427332     0.508474
H     -1.122671     0.987606    -0.421889
H     -1.633814    -0.703066    -0.413295
H     -1.194235     0.099603     1.107038
H      0.730872    -0.522938    -1.196520
H      0.641178    -1.410395     0.318436
H      1.344975     1.287188     0.119206
9
Iteration 1, Energy=-154.0927184448, |grad|=0.000517
C     -0.949184     0.013655     0.046536
C      0.493347    -0.428141    -0.130296
O      1.402195     0.427353     0.508618
H     -1.122662     0.987828    -0.421693
H     -1.634242    -0.703029    -0.413465
H     -1.194272     0.099399     1.106983
H      0.731099    -0.523044    -1.196542
H      0.641550    -1.410527     0.318678
H      1.344578     1.287049     0.119076
9
Iteration 2, Energy=-154.0927186033, |grad|=0.000518
C     -0.949178     0.013625     0.046595
C      0.493344    -0.428160    -0.130199
O      1.402112     0.427475     0.508555
H     -1.122229     0.987943    -0.421239
H     -1.634251    -0.702858    -0.413783
H     -1.194340     0.099092     1.107050
H      0.731061    -0.523085    -1.196427
H      0.641621    -1.410520     0.318819
H      1.344588     1.287096     0.118551
9
Iteration -1, Energy=-154.0927183910, |grad|=0.000432
C     -0.949072     0.013760     0.046553
C      0.493377    -0.427933    -0.130252
O      1.402494     0.427332     0.508474
H     -1.122671     0.987606    -0.421889
H     -1.633814    -0.703066    -0.413295
H     -1.194235     0.099603     1.107038
H      0.730872    -0.522938    -1.196520
H      0.641178    -1.410395     0.318436
H      1.344975     1.287188     0.119206
9
Iteration 1, Energy=-154.0927184321, |grad|=0.000277
C     -0.949125     0.013764     0.046636
C      0.493387    -0.428010    -0.130253
O      1.402483     0.427303     0.508482
H     -1.122631     0.987655    -0.421869
H     -1.633830    -0.703088    -0.413329
H     -1.194241     0.099587     1.106985
H      0.730879    -0.522909    -1.196507
H      0.641210    -1.410353     0.318452
H      1.344972     1.287206     0.119154
