9
Iteration 0, Energy=-154.0094910950, |grad|=0.500358
C     -0.911965     0.032856     0.225973
C      0.471483    -0.427897    -0.199907
O      1.153086     0.483689     0.735607
H     -1.357779     0.652041    -0.742587
H     -1.464241    -0.944113    -0.091385
H     -1.203243     0.538334     1.081370
H      0.784988    -0.201871    -1.271661
H      0.456805    -1.509926    -0.093962
H      1.783951     1.128339     0.293946
9
Iteration 1, Energy=-154.0437012597, |grad|=0.275870
C     -0.933633    -0.005966     0.158106
C      0.467950    -0.393814    -0.181421
O      1.184602     0.485795     0.719849
H     -1.355572     0.654799    -0.735919
H     -1.468441    -0.928342    -0.075626
H     -1.201748     0.542891     1.102425
H      0.780939    -0.201605    -1.266739
H      0.470396    -1.510222    -0.086439
H      1.768591     1.107914     0.303159
9
Iteration 2, Energy=-154.0637704665, |grad|=0.172286
C     -0.980539    -0.006547     0.094331
C      0.476059    -0.357591    -0.171751
O      1.209276     0.464550     0.712487
H     -1.348590     0.651521    -0.717892
H     -1.486324    -0.922935    -0.056252
H     -1.188644     0.524860     1.095440
H      0.771689    -0.201321    -1.248161
H      0.497508    -1.494516    -0.071079
H      1.762649     1.093429     0.300271
9
Iteration 3, Energy=-154.0749956054, |grad|=0.151989
C     -1.001727     0.009623     0.042236
C      0.463875    -0.332712    -0.170860
O      1.237514     0.430062     0.716431
H     -1.348431     0.656295    -0.704243
H     -1.523859    -0.934582    -0.035714
H     -1.174001     0.494555     1.070075
H      0.761692    -0.197485    -1.221827
H      0.536482    -1.457416    -0.047074
H      1.761540     1.083110     0.288369
9
Iteration 4, Energy=-154.0825022801, |grad|=0.098006
C     -1.018202     0.001911     0.031454
C      0.457277    -0.325648    -0.175427
O      1.267248     0.400837     0.720888
H     -1.359072     0.679396    -0.707723
H     -1.557376    -0.934582    -0.019005
H     -1.160113     0.461926     1.030126
H      0.753725    -0.190499    -1.199218
H      0.572610    -1.413256    -0.021149
H      1.756987     1.071363     0.277447
9
Iteration 5, Energy=-154.0841692728, |grad|=0.102649
C     -1.015302     0.000904     0.023410
C      0.453044    -0.330982    -0.146119
O      1.287358     0.366582     0.718452
H     -1.378518     0.705015    -0.710786
H     -1.601823    -0.936326    -0.010153
H     -1.150054     0.430752     0.995920
H      0.755121    -0.171994    -1.208282
H      0.610201    -1.377161     0.011194
H      1.753056     1.064661     0.263758
9
Iteration 6, Energy=-154.0857778886, |grad|=0.030230
C     -1.014478    -0.004939     0.029402
C      0.456496    -0.329508    -0.165026
O      1.289899     0.377136     0.721024
H     -1.379561     0.704583    -0.714545
H     -1.598040    -0.931779    -0.014426
H     -1.153137     0.435974     1.005398
H      0.754338    -0.173152    -1.203374
H      0.607478    -1.388964     0.012271
H      1.750088     1.062098     0.266670
9
Iteration 7, Energy=-154.0860552200, |grad|=0.020436
C     -1.014503    -0.007272     0.028320
C      0.460044    -0.331512    -0.167492
O      1.290594     0.376576     0.721165
H     -1.382410     0.705253    -0.715589
H     -1.601243    -0.927869    -0.017091
H     -1.154282     0.436427     1.010448
H      0.755209    -0.170594    -1.204631
H      0.610477    -1.392323     0.016927
H      1.749198     1.062765     0.265336
9
Iteration 8, Energy=-154.0864138505, |grad|=0.020652
C     -1.014454    -0.007861     0.026319
C      0.466372    -0.338215    -0.169299
O      1.296933     0.374742     0.718331
H     -1.390583     0.707048    -0.716365
H     -1.615409    -0.918264    -0.024481
H     -1.155798     0.432481     1.017601
H      0.758689    -0.162635    -1.208799
H      0.622927    -1.398078     0.031938
H      1.744407     1.062232     0.262150
9
Iteration 9, Energy=-154.0864876857, |grad|=0.030919
C     -1.014619    -0.008517     0.027072
C      0.467363    -0.339234    -0.168870
O      1.298979     0.367748     0.716671
H     -1.393852     0.706870    -0.714299
H     -1.626209    -0.908176    -0.032304
H     -1.156395     0.427369     1.020426
H      0.762239    -0.160695    -1.208525
H      0.633044    -1.402818     0.041478
H      1.742535     1.068904     0.255744
9
Iteration 10, Energy=-154.0866038749, |grad|=0.012751
C     -1.014609    -0.006498     0.027642
C      0.467458    -0.342043    -0.168125
O      1.299986     0.370259     0.715031
H     -1.393064     0.706126    -0.713080
H     -1.626753    -0.908062    -0.033646
H     -1.156464     0.426867     1.020513
H      0.762662    -0.161435    -1.208367
H      0.632742    -1.402042     0.040812
H      1.741126     1.068278     0.256613
9
Iteration 11, Energy=-154.0866682770, |grad|=0.009620
C     -1.014511    -0.004858     0.028880
C      0.467026    -0.344147    -0.167196
O      1.301354     0.371489     0.712780
H     -1.391622     0.705492    -0.710626
H     -1.629304    -0.905689    -0.037300
H     -1.156501     0.424834     1.020833
H      0.763735    -0.163664    -1.206848
H      0.634050    -1.401967     0.041090
H      1.738857     1.069960     0.255780
9
Iteration 12, Energy=-154.0867396098, |grad|=0.013794
C     -1.013924    -0.004141     0.030470
C      0.466538    -0.346117    -0.165700
O      1.303336     0.372470     0.709762
H     -1.389026     0.705901    -0.706850
H     -1.633825    -0.901366    -0.043707
H     -1.156639     0.421363     1.022322
H      0.765323    -0.168123    -1.204292
H      0.636388    -1.402400     0.042052
H      1.734913     1.073863     0.253335
9
Iteration 13, Energy=-154.0868916948, |grad|=0.018883
C     -1.012464    -0.004585     0.032998
C      0.467058    -0.349514    -0.162154
O      1.307885     0.374575     0.704517
H     -1.381899     0.710953    -0.698794
H     -1.643748    -0.893180    -0.058063
H     -1.156978     0.412960     1.027030
H      0.767896    -0.179756    -1.199829
H      0.640759    -1.403454     0.045042
H      1.724574     1.083452     0.246647
9
Iteration 14, Energy=-154.0872765141, |grad|=0.026572
C     -1.009778    -0.005518     0.039104
C      0.469756    -0.358487    -0.154470
O      1.318818     0.380994     0.693152
H     -1.359261     0.732648    -0.678069
H     -1.663742    -0.875914    -0.093966
H     -1.158258     0.388558     1.039984
H      0.772415    -0.211120    -1.194147
H      0.649003    -1.409221     0.057289
H      1.694130     1.109510     0.228516
9
Iteration 15, Energy=-154.0879537554, |grad|=0.053740
C     -0.996703    -0.011499     0.044462
C      0.474988    -0.383765    -0.131586
O      1.349118     0.396216     0.649565
H     -1.283146     0.811807    -0.608909
H     -1.712510    -0.823244    -0.199917
H     -1.163076     0.306029     1.080447
H      0.780430    -0.308015    -1.179617
H      0.671854    -1.423908     0.108210
H      1.592129     1.187829     0.174738
9
Iteration 16, Energy=-154.0888639263, |grad|=0.036648
C     -0.998650    -0.012822     0.048446
C      0.481275    -0.385651    -0.133573
O      1.346784     0.403224     0.639551
H     -1.262645     0.833647    -0.594273
H     -1.703500    -0.815775    -0.214071
H     -1.164039     0.287456     1.081915
H      0.775994    -0.328324    -1.181906
H      0.667485    -1.426786     0.122448
H      1.570381     1.196480     0.168856
9
Iteration 17, Energy=-154.0901976834, |grad|=0.055836
C     -0.988270    -0.013546     0.048412
C      0.490815    -0.405146    -0.133008
O      1.354511     0.422866     0.599523
H     -1.187246     0.916165    -0.529711
H     -1.699656    -0.777239    -0.287827
H     -1.170127     0.209058     1.105779
H      0.767095    -0.407861    -1.187577
H      0.668802    -1.438831     0.187990
H      1.477159     1.245984     0.133813
9
Iteration 18, Energy=-154.0909228200, |grad|=0.047886
C     -0.980325    -0.006785     0.040462
C      0.488729    -0.404507    -0.141093
O      1.341131     0.425226     0.597567
H     -1.179972     0.923083    -0.522392
H     -1.669209    -0.781650    -0.278845
H     -1.171837     0.202904     1.100500
H      0.756281    -0.407015    -1.202724
H      0.656063    -1.435670     0.204787
H      1.472222     1.235863     0.139132
9
Iteration 19, Energy=-154.0914858972, |grad|=0.041587
C     -0.963670     0.003348     0.043744
C      0.488364    -0.419957    -0.143055
O      1.343557     0.429154     0.577606
H     -1.142531     0.960082    -0.483425
H     -1.659028    -0.760709    -0.321657
H     -1.174334     0.158102     1.107259
H      0.747711    -0.447124    -1.210781
H      0.652545    -1.433993     0.248944
H      1.420470     1.262547     0.118759
9
Iteration 20, Energy=-154.0918166410, |grad|=0.025315
C     -0.961874     0.003596     0.043138
C      0.484359    -0.419389    -0.140980
O      1.346867     0.426142     0.577664
H     -1.152153     0.947246    -0.486390
H     -1.659387    -0.758960    -0.320589
H     -1.172513     0.164170     1.104948
H      0.748218    -0.439949    -1.208098
H      0.652502    -1.428336     0.246053
H      1.427067     1.256930     0.121647
9
Iteration 21, Energy=-154.0921959634, |grad|=0.027117
C     -0.956183     0.003177     0.042869
C      0.483371    -0.424784    -0.134222
O      1.360071     0.430007     0.555932
H     -1.137561     0.958167    -0.461419
H     -1.661074    -0.735434    -0.356453
H     -1.170959     0.139614     1.111932
H      0.745810    -0.464425    -1.202996
H      0.653560    -1.422749     0.270359
H      1.396050     1.267879     0.111392
9
Iteration 22, Energy=-154.0924470166, |grad|=0.018898
C     -0.954267     0.006047     0.046432
C      0.486691    -0.426254    -0.134061
O      1.372177     0.429091     0.536090
H     -1.130103     0.962063    -0.438796
H     -1.653848    -0.715274    -0.386553
H     -1.169132     0.119900     1.110662
H      0.739850    -0.483363    -1.196140
H      0.649670    -1.413860     0.295058
H      1.372046     1.273100     0.104703
9
Iteration 23, Energy=-154.0925519736, |grad|=0.015248
C     -0.950054     0.006053     0.050336
C      0.489820    -0.433382    -0.129404
O      1.383337     0.438464     0.514640
H     -1.109246     0.988273    -0.412852
H     -1.649316    -0.697665    -0.418806
H     -1.171615     0.090456     1.114394
H      0.735519    -0.514445    -1.196904
H      0.647034    -1.411623     0.320838
H      1.337604     1.285319     0.095152
9
Iteration 24, Energy=-154.0926169920, |grad|=0.007500
C     -0.951407     0.006582     0.047537
C      0.490834    -0.429542    -0.130899
O      1.382412     0.436336     0.517350
H     -1.114422     0.984644    -0.416856
H     -1.645657    -0.701282    -0.410056
H     -1.174170     0.095166     1.112694
H      0.735062    -0.510555    -1.197246
H      0.645987    -1.412012     0.316439
H      1.344445     1.282113     0.098430
9
Iteration 25, Energy=-154.0926433218, |grad|=0.006608
C     -0.950751     0.008069     0.047336
C      0.491817    -0.428881    -0.131477
O      1.385104     0.435644     0.515575
H     -1.115275     0.985406    -0.414965
H     -1.643933    -0.700407    -0.410652
H     -1.177087     0.093446     1.112112
H      0.734435    -0.513542    -1.196507
H      0.645600    -1.411543     0.317325
H      1.343175     1.283260     0.098647
9
Iteration 26, Energy=-154.0926870139, |grad|=0.006766
C     -0.949238     0.011073     0.048137
C      0.493954    -0.427476    -0.131414
O      1.392682     0.434660     0.510796
H     -1.119710     0.987472    -0.412127
H     -1.639313    -0.699732    -0.410297
H     -1.185709     0.090804     1.109629
H      0.733406    -0.520347    -1.195499
H      0.644406    -1.409870     0.317191
H      1.342604     1.284867     0.100978
9
Iteration 27, Energy=-154.0926995956, |grad|=0.006894
C     -0.948385     0.011920     0.048169
C      0.494066    -0.427754    -0.130408
O      1.397591     0.434135     0.505025
H     -1.118857     0.991202    -0.407243
H     -1.636376    -0.696866    -0.415536
H     -1.189782     0.086355     1.110539
H      0.732502    -0.526841    -1.195630
H      0.644106    -1.408995     0.321634
H      1.338220     1.288295     0.100842
9
Iteration 28, Energy=-154.0927110214, |grad|=0.002239
C     -0.948406     0.012445     0.049191
C      0.493781    -0.427900    -0.130433
O      1.400194     0.433967     0.503442
H     -1.121403     0.991358    -0.408096
H     -1.635741    -0.698375    -0.415105
H     -1.192878     0.087537     1.110535
H      0.732569    -0.527331    -1.195649
H      0.644446    -1.408851     0.320618
H      1.340523     1.288598     0.102891
9
Iteration 29, Energy=-154.0927140205, |grad|=0.001802
C     -0.948976     0.012247     0.049683
C      0.493557    -0.427973    -0.130291
O      1.400635     0.433394     0.503187
H     -1.122613     0.990743    -0.409248
H     -1.635619    -0.699558    -0.414725
H     -1.193471     0.088992     1.110706
H      0.732405    -0.526234    -1.196044
H      0.644697    -1.408727     0.320103
H      1.342470     1.288566     0.104023
9
Iteration 30, Energy=-154.0927163248, |grad|=0.001729
C     -0.949512     0.011985     0.049953
C      0.493237    -0.427742    -0.130559
O      1.401187     0.432724     0.503198
H     -1.123707     0.989903    -0.410533
H     -1.635377    -0.700984    -0.414466
H     -1.193910     0.090590     1.111034
H      0.731641    -0.524840    -1.196539
H      0.644932    -1.408654     0.320004
H      1.344592     1.288470     0.105300
9
Iteration 31, Energy=-154.0927174010, |grad|=0.002925
C     -0.950297     0.012041     0.049799
C      0.493537    -0.427425    -0.130424
O      1.401774     0.431464     0.504213
H     -1.125274     0.988167    -0.412889
H     -1.634728    -0.703489    -0.413087
H     -1.194350     0.092905     1.110934
H      0.729462    -0.522478    -1.197536
H      0.644894    -1.407973     0.319180
H      1.348064     1.288238     0.107203
9
Iteration 32, Energy=-154.0927187583, |grad|=0.000736
C     -0.950049     0.011840     0.049882
C      0.493313    -0.426913    -0.130709
O      1.402045     0.431495     0.504178
H     -1.125199     0.988241    -0.412919
H     -1.634535    -0.703427    -0.413223
H     -1.194391     0.092746     1.110811
H      0.729042    -0.522618    -1.197415
H      0.644875    -1.408104     0.319492
H      1.347984     1.288192     0.107296
9
Iteration 33, Energy=-154.0927189660, |grad|=0.000458
C     -0.949902     0.011896     0.049747
C      0.493320    -0.426875    -0.130681
O      1.402107     0.431649     0.504153
H     -1.124914     0.988372    -0.412760
H     -1.634408    -0.703250    -0.413340
H     -1.194335     0.092390     1.110773
H      0.728770    -0.522874    -1.197354
H      0.644797    -1.408075     0.319649
H      1.347651     1.288216     0.107206
9
Iteration 34, Energy=-154.0927191167, |grad|=0.000377
C     -0.949772     0.011973     0.049715
C      0.493306    -0.426831    -0.130584
O      1.402232     0.431704     0.504084
H     -1.124646     0.988436    -0.412796
H     -1.634171    -0.703177    -0.413435
H     -1.194325     0.092072     1.110689
H      0.728259    -0.523052    -1.197280
H      0.644723    -1.407999     0.319749
H      1.347477     1.288326     0.107251
9
Iteration 35, Energy=-154.0927191663, |grad|=0.000608
C     -0.949735     0.012078     0.049764
C      0.493167    -0.426871    -0.130427
O      1.402337     0.431737     0.503720
H     -1.124384     0.988360    -0.413000
H     -1.633845    -0.703109    -0.413601
H     -1.194437     0.091915     1.110846
H      0.727823    -0.523106    -1.197169
H      0.644739    -1.408021     0.319783
H      1.347419     1.288465     0.107477
9
Iteration 36, Energy=-154.0927192193, |grad|=0.000151
C     -0.949713     0.012061     0.049854
C      0.493192    -0.426896    -0.130445
O      1.402334     0.431716     0.503801
H     -1.124318     0.988406    -0.413028
H     -1.633864    -0.703097    -0.413603
H     -1.194406     0.091881     1.110791
H      0.727789    -0.523125    -1.197157
H      0.644728    -1.408018     0.319761
H      1.347342     1.288522     0.107419
