9
Iteration -1, Energy=-117.0668031764, |grad|=0.019335
C     -0.592302    -0.629587    -0.009523
C     -0.241604     0.823486    -0.098113
C      0.833150    -0.196500     0.113528
H     -1.103773    -0.947470     0.887191
H     -0.887492    -1.170607    -0.901184
H     -0.539103     1.446847     0.736124
H     -0.278740     1.332023    -1.049177
H      1.464986    -0.397873    -0.741931
H      1.344878    -0.260320     1.063085
9
Iteration 1, Energy=-117.0668789479, |grad|=0.013851
C     -0.594127    -0.631448    -0.010050
C     -0.242832     0.825665    -0.095675
C      0.835980    -0.196376     0.110210
H     -1.104417    -0.948756     0.888357
H     -0.887581    -1.169219    -0.901195
H     -0.537905     1.446986     0.736561
H     -0.279616     1.331626    -1.051764
H      1.466636    -0.398280    -0.741344
H      1.343863    -0.260197     1.064900
9
Iteration 2, Energy=-117.0669253410, |grad|=0.011310
C     -0.594252    -0.631376    -0.009602
C     -0.243094     0.825737    -0.095810
C      0.836283    -0.195805     0.109445
H     -1.104856    -0.950153     0.889280
H     -0.888083    -1.168225    -0.901909
H     -0.536976     1.447812     0.737910
H     -0.280630     1.330919    -1.053194
H      1.468998    -0.398801    -0.741844
H      1.342610    -0.260110     1.065723
9
Iteration 3, Energy=-117.0670661864, |grad|=0.014128
C     -0.595103    -0.631231    -0.006245
C     -0.245055     0.828521    -0.097646
C      0.839039    -0.193806     0.106850
H     -1.105406    -0.959254     0.892486
H     -0.891782    -1.160063    -0.905362
H     -0.528798     1.451933     0.743736
H     -0.288807     1.324286    -1.059200
H      1.483538    -0.401591    -0.742473
H      1.332372    -0.258794     1.067854
9
Iteration 4, Energy=-117.0671069478, |grad|=0.022987
C     -0.593148    -0.628579    -0.005775
C     -0.244457     0.825603    -0.095407
C      0.836825    -0.192495     0.100830
H     -1.104053    -0.966601     0.893474
H     -0.895097    -1.152020    -0.906574
H     -0.520587     1.455055     0.745466
H     -0.297127     1.319044    -1.063772
H      1.492991    -0.403035    -0.738802
H      1.324653    -0.256972     1.070559
9
Iteration 5, Energy=-117.0671751793, |grad|=0.011107
C     -0.593884    -0.629391    -0.005826
C     -0.244345     0.826472    -0.096423
C      0.837611    -0.193204     0.102423
H     -1.102830    -0.966325     0.892247
H     -0.895296    -1.151485    -0.906213
H     -0.519967     1.454871     0.744489
H     -0.297706     1.318457    -1.062218
H      1.492203    -0.402738    -0.737908
H      1.324214    -0.256656     1.069429
9
Iteration 6, Energy=-117.0672360739, |grad|=0.006251
C     -0.594240    -0.629642    -0.005827
C     -0.243837     0.826741    -0.096997
C      0.837958    -0.194148     0.102787
H     -1.099515    -0.969237     0.890259
H     -0.897478    -1.146740    -0.906425
H     -0.514656     1.455974     0.742957
H     -0.302970     1.314931    -1.061295
H      1.494804    -0.402811    -0.734240
H      1.319933    -0.255067     1.068781
9
Iteration 7, Energy=-117.0672687620, |grad|=0.006070
C     -0.594117    -0.629474    -0.006055
C     -0.243325     0.826339    -0.096836
C      0.837814    -0.194864     0.102197
H     -1.096020    -0.973333     0.889092
H     -0.900544    -1.141335    -0.907875
H     -0.508174     1.457939     0.741744
H     -0.309509     1.311163    -1.061603
H      1.498559    -0.403257    -0.730464
H      1.315316    -0.253177     1.069799
9
Iteration 8, Energy=-117.0672935775, |grad|=0.003451
C     -0.594206    -0.630706    -0.008106
C     -0.242974     0.825370    -0.097033
C      0.838040    -0.195893     0.103602
H     -1.091022    -0.977940     0.889387
H     -0.905483    -1.137084    -0.913006
H     -0.501284     1.462246     0.740114
H     -0.316813     1.309094    -1.062201
H      1.500186    -0.404332    -0.727496
H      1.313556    -0.250753     1.074739
9
Iteration 9, Energy=-117.0672947368, |grad|=0.002437
C     -0.594166    -0.630635    -0.007511
C     -0.243080     0.825342    -0.096669
C      0.837935    -0.195806     0.103535
H     -1.090795    -0.978214     0.889098
H     -0.905567    -1.136988    -0.913199
H     -0.501175     1.462370     0.739903
H     -0.316818     1.309157    -1.062384
H      1.500261    -0.404519    -0.727452
H      1.313406    -0.250706     1.074680
9
Iteration 10, Energy=-117.0672958113, |grad|=0.000934
C     -0.593988    -0.630401    -0.007456
C     -0.243122     0.825281    -0.096507
C      0.837738    -0.195646     0.103148
H     -1.091136    -0.978268     0.889127
H     -0.905220    -1.136982    -0.912692
H     -0.501502     1.462226     0.739997
H     -0.316410     1.309189    -1.062443
H      1.500323    -0.404574    -0.727511
H      1.313317    -0.250825     1.074337
9
Iteration 1, Energy=-117.0672944559, |grad|=0.002950
C     -0.594174    -0.630681    -0.007674
C     -0.243069     0.825363    -0.096744
C      0.837945    -0.195839     0.103629
H     -1.090920    -0.977969     0.889122
H     -0.905432    -1.137123    -0.912784
H     -0.501383     1.462151     0.739863
H     -0.316613     1.309180    -1.062230
H      1.500065    -0.404402    -0.727574
H      1.313464    -0.250763     1.074386
9
Iteration 2, Energy=-117.0672953940, |grad|=0.001592
C     -0.594063    -0.630521    -0.007569
C     -0.243076     0.825284    -0.096604
C      0.837830    -0.195760     0.103316
H     -1.090828    -0.978354     0.889104
H     -0.905520    -1.136744    -0.912848
H     -0.501053     1.462319     0.739907
H     -0.316908     1.309001    -1.062423
H      1.500407    -0.404529    -0.727367
H      1.313181    -0.250675     1.074472
9
Iteration -1, Energy=-117.0672958113, |grad|=0.000934
C     -0.593988    -0.630401    -0.007456
C     -0.243122     0.825281    -0.096507
C      0.837738    -0.195646     0.103148
H     -1.091136    -0.978268     0.889127
H     -0.905220    -1.136982    -0.912692
H     -0.501502     1.462226     0.739997
H     -0.316410     1.309189    -1.062443
H      1.500323    -0.404574    -0.727511
H      1.313317    -0.250825     1.074337
9
Iteration 1, Energy=-117.0672960600, |grad|=0.001075
C     -0.593868    -0.630320    -0.007623
C     -0.243160     0.825235    -0.096530
C      0.837615    -0.195578     0.102985
H     -1.091154    -0.978598     0.889233
H     -0.905133    -1.136853    -0.912541
H     -0.501586     1.462442     0.739977
H     -0.316268     1.309211    -1.062388
H      1.500209    -0.404729    -0.727464
H      1.313345    -0.250811     1.074350
9
Iteration 2, Energy=-117.0672962963, |grad|=0.000790
C     -0.593895    -0.630330    -0.007536
C     -0.243210     0.825305    -0.096515
C      0.837627    -0.195547     0.102990
H     -1.091100    -0.978789     0.889196
H     -0.905090    -1.136797    -0.912516
H     -0.501633     1.462559     0.739924
H     -0.316172     1.309234    -1.062366
H      1.500146    -0.404837    -0.727467
H      1.313328    -0.250798     1.074291
9
Iteration 3, Energy=-117.0672969491, |grad|=0.000472
C     -0.593951    -0.630247    -0.007075
C     -0.243442     0.825555    -0.096316
C      0.837492    -0.195319     0.103034
H     -1.090775    -0.980071     0.889048
H     -0.904826    -1.136445    -0.912409
H     -0.501940     1.463365     0.739592
H     -0.315579     1.309416    -1.062323
H      1.499750    -0.405552    -0.727541
H      1.313271    -0.250701     1.073991
9
Iteration 4, Energy=-117.0672970133, |grad|=0.000735
C     -0.594092    -0.630282    -0.007150
C     -0.243424     0.825716    -0.096293
C      0.837536    -0.195362     0.103059
H     -1.090647    -0.980510     0.889126
H     -0.904730    -1.136310    -0.912459
H     -0.502008     1.463693     0.739507
H     -0.315480     1.309411    -1.062316
H      1.499490    -0.405722    -0.727561
H      1.313355    -0.250634     1.074086
9
Iteration 5, Energy=-117.0672970829, |grad|=0.000243
C     -0.594064    -0.630227    -0.007109
C     -0.243397     0.825667    -0.096278
C      0.837467    -0.195363     0.103092
H     -1.090618    -0.980557     0.889124
H     -0.904733    -1.136310    -0.912526
H     -0.502004     1.463744     0.739497
H     -0.315487     1.309406    -1.062332
H      1.499457    -0.405735    -0.727586
H      1.313379    -0.250625     1.074117
