9
Iteration 0, Energy=-117.0647269609, |grad|=0.053382
C     -0.601928    -0.628630     0.001770
C     -0.250588     0.837857    -0.095965
C      0.843015    -0.183761     0.103373
H     -1.136299    -0.959974     0.903273
H     -0.875537    -1.195457    -0.890261
H     -0.580421     1.454513     0.751698
H     -0.240997     1.359946    -1.061552
H      1.478791    -0.412957    -0.768459
H      1.363963    -0.271537     1.056125
9
Iteration 1, Energy=-117.0654126178, |grad|=0.040679
C     -0.601232    -0.630649    -0.000135
C     -0.250050     0.839723    -0.096328
C      0.843082    -0.187326     0.103367
H     -1.131609    -0.957422     0.898734
H     -0.875770    -1.191818    -0.887917
H     -0.575917     1.451764     0.746674
H     -0.244478     1.356112    -1.056450
H      1.474175    -0.410288    -0.762085
H      1.361798    -0.270097     1.054139
9
Iteration 2, Energy=-117.0662276988, |grad|=0.029160
C     -0.596542    -0.630554    -0.003641
C     -0.246460     0.835432    -0.096535
C      0.837882    -0.193118     0.106517
H     -1.120414    -0.951806     0.889363
H     -0.877750    -1.184169    -0.886055
H     -0.564835     1.447282     0.737488
H     -0.254045     1.348151    -1.047890
H      1.465676    -0.404594    -0.750104
H      1.356488    -0.266624     1.050855
9
Iteration 3, Energy=-117.0665792169, |grad|=0.016675
C     -0.594576    -0.630165    -0.007148
C     -0.243509     0.828362    -0.095472
C      0.835061    -0.195003     0.108488
H     -1.112291    -0.948753     0.886983
H     -0.881441    -1.178134    -0.891090
H     -0.553887     1.446527     0.735362
H     -0.264526     1.341875    -1.048057
H      1.463020    -0.400982    -0.744683
H      1.352148    -0.263729     1.055616
9
Iteration 4, Energy=-117.0668031764, |grad|=0.019335
C     -0.592302    -0.629587    -0.009523
C     -0.241604     0.823486    -0.098113
C      0.833150    -0.196500     0.113528
H     -1.103773    -0.947470     0.887191
H     -0.887492    -1.170607    -0.901184
H     -0.539103     1.446847     0.736124
H     -0.278740     1.332023    -1.049177
H      1.464986    -0.397873    -0.741931
H      1.344878    -0.260320     1.063085
9
Iteration 5, Energy=-117.0669417445, |grad|=0.018766
C     -0.592477    -0.630594    -0.011884
C     -0.241531     0.821192    -0.095501
C      0.834389    -0.196711     0.111416
H     -1.099273    -0.948623     0.889275
H     -0.891715    -1.163828    -0.908122
H     -0.527738     1.447584     0.737526
H     -0.289422     1.325421    -1.054476
H      1.468876    -0.396504    -0.739391
H      1.338891    -0.257935     1.071158
9
Iteration 6, Energy=-117.0670626872, |grad|=0.012676
C     -0.593644    -0.631967    -0.011732
C     -0.242111     0.821728    -0.096560
C      0.836605    -0.196196     0.110303
H     -1.097345    -0.951957     0.890974
H     -0.894588    -1.157885    -0.911918
H     -0.520242     1.449535     0.740678
H     -0.296714     1.320007    -1.058105
H      1.475394    -0.396748    -0.738616
H      1.332646    -0.256517     1.074977
9
Iteration 7, Energy=-117.0671941189, |grad|=0.010596
C     -0.593249    -0.631854    -0.009412
C     -0.244140     0.825399    -0.096464
C      0.838552    -0.195813     0.106788
H     -1.096109    -0.960959     0.892741
H     -0.898773    -1.147808    -0.914653
H     -0.509268     1.452368     0.743544
H     -0.307049     1.311718    -1.062999
H      1.489014    -0.398685    -0.736245
H      1.321022    -0.254368     1.076700
9
Iteration 8, Energy=-117.0672408720, |grad|=0.012343
C     -0.594735    -0.631754    -0.007781
C     -0.243081     0.824294    -0.098652
C      0.839429    -0.194801     0.102101
H     -1.094586    -0.968833     0.891451
H     -0.901005    -1.139643    -0.912570
H     -0.503515     1.456831     0.745782
H     -0.313628     1.307150    -1.064344
H      1.497808    -0.400436    -0.731660
H      1.313313    -0.252810     1.075672
9
Iteration 9, Energy=-117.0672717439, |grad|=0.005299
C     -0.593988    -0.630785    -0.007377
C     -0.243182     0.824993    -0.096984
C      0.838479    -0.195052     0.102758
H     -1.094297    -0.970941     0.890557
H     -0.901585    -1.138929    -0.911580
H     -0.502982     1.457046     0.743699
H     -0.314149     1.307386    -1.063965
H      1.499281    -0.401303    -0.730774
H      1.312422    -0.252414     1.073666
9
Iteration 10, Energy=-117.0672814811, |grad|=0.003074
C     -0.593413    -0.629921    -0.006995
C     -0.243040     0.825109    -0.096550
C      0.837665    -0.195388     0.102413
H     -1.093811    -0.972643     0.889792
H     -0.902255    -1.138728    -0.911188
H     -0.502881     1.457767     0.742143
H     -0.314437     1.307835    -1.063039
H      1.499581    -0.401936    -0.729573
H      1.312593    -0.252095     1.072997
9
Iteration 11, Energy=-117.0672871142, |grad|=0.003123
C     -0.593436    -0.629681    -0.007219
C     -0.242882     0.824998    -0.096420
C      0.837371    -0.195520     0.102434
H     -1.093113    -0.974652     0.889372
H     -0.903139    -1.138163    -0.911034
H     -0.502509     1.459126     0.741083
H     -0.315107     1.308311    -1.062519
H      1.500079    -0.402749    -0.728560
H      1.312738    -0.251670     1.072864
9
Iteration 12, Energy=-117.0672931729, |grad|=0.004038
C     -0.594008    -0.629906    -0.006605
C     -0.242943     0.825207    -0.096357
C      0.837420    -0.195762     0.102547
H     -1.091140    -0.978851     0.888363
H     -0.905358    -1.137225    -0.912010
H     -0.501641     1.462442     0.739206
H     -0.316498     1.309512    -1.061902
H      1.500825    -0.404663    -0.726776
H      1.313344    -0.250753     1.073534
9
Iteration 13, Energy=-117.0672952153, |grad|=0.002702
C     -0.593877    -0.630196    -0.007787
C     -0.243255     0.825467    -0.096586
C      0.837457    -0.195622     0.102921
H     -1.090936    -0.980716     0.889159
H     -0.905953    -1.136754    -0.912232
H     -0.501539     1.463958     0.739103
H     -0.316683     1.309969    -1.061980
H      1.501037    -0.405628    -0.726787
H      1.313749    -0.250478     1.074189
9
Iteration 14, Energy=-117.0672964109, |grad|=0.000640
C     -0.594024    -0.630307    -0.007400
C     -0.243228     0.825410    -0.096507
C      0.837622    -0.195580     0.102962
H     -1.091029    -0.979755     0.889014
H     -0.905551    -1.136942    -0.912272
H     -0.501640     1.463293     0.739403
H     -0.316445     1.309734    -1.062175
H      1.500724    -0.405225    -0.727081
H      1.313571    -0.250629     1.074056
9
Iteration 15, Energy=-117.0672965589, |grad|=0.000488
C     -0.594041    -0.630372    -0.007337
C     -0.243276     0.825439    -0.096490
C      0.837660    -0.195535     0.103001
H     -1.090962    -0.979729     0.889045
H     -0.905474    -1.136892    -0.912375
H     -0.501641     1.463296     0.739481
H     -0.316367     1.309671    -1.062269
H      1.500570    -0.405249    -0.727183
H      1.313530    -0.250627     1.074128
9
Iteration 16, Energy=-117.0672968072, |grad|=0.000596
C     -0.594029    -0.630443    -0.007238
C     -0.243381     0.825521    -0.096446
C      0.837662    -0.195433     0.103086
H     -1.090746    -0.979928     0.889106
H     -0.905283    -1.136684    -0.912538
H     -0.501674     1.463436     0.739550
H     -0.316142     1.309532    -1.062399
H      1.500154    -0.405416    -0.727352
H      1.313440    -0.250585     1.074232
9
Iteration 17, Energy=-117.0672970255, |grad|=0.000467
C     -0.594008    -0.630380    -0.007119
C     -0.243444     0.825563    -0.096343
C      0.837559    -0.195324     0.103103
H     -1.090453    -0.980374     0.889173
H     -0.905021    -1.136300    -0.912683
H     -0.501666     1.463687     0.739565
H     -0.315928     1.309278    -1.062532
H      1.499704    -0.405658    -0.727494
H      1.313256    -0.250494     1.074329
9
Iteration 18, Energy=-117.0672970706, |grad|=0.000538
C     -0.594012    -0.630340    -0.007108
C     -0.243460     0.825660    -0.096335
C      0.837534    -0.195347     0.103160
H     -1.090365    -0.980563     0.889171
H     -0.904925    -1.136181    -0.912679
H     -0.501683     1.463773     0.739476
H     -0.315850     1.309188    -1.062463
H      1.499534    -0.405732    -0.727505
H      1.313227    -0.250460     1.074284
9
Iteration 19, Energy=-117.0672971215, |grad|=0.000145
C     -0.594010    -0.630254    -0.007082
C     -0.243432     0.825629    -0.096282
C      0.837447    -0.195332     0.103151
H     -1.090283    -0.980770     0.889181
H     -0.904817    -1.136027    -0.912689
H     -0.501683     1.463894     0.739436
H     -0.315801     1.309087    -1.062475
H      1.499399    -0.405803    -0.727526
H      1.313180    -0.250425     1.074287
