9
Iteration -1, Energy=-154.0837996503, |grad|=0.044117
C     -0.977020     0.054531     0.039344
C      0.487693    -0.332548    -0.192952
O      1.302254     0.336299     0.743792
H     -1.353582     0.729531    -0.729129
H     -1.591671    -0.850511     0.025441
H     -1.069217     0.581118     0.999619
H      0.788253    -0.138478    -1.230198
H      0.594696    -1.412625    -0.042175
H      1.818594     1.032682     0.386258
9
Iteration 0, Energy=-154.0843833249, |grad|=0.059413
C     -0.977280     0.053879     0.035312
C      0.484312    -0.325026    -0.187773
O      1.305233     0.320355     0.751886
H     -1.354690     0.731318    -0.731808
H     -1.597106    -0.844075     0.028915
H     -1.069673     0.569254     0.994917
H      0.790027    -0.136048    -1.225589
H      0.600639    -1.406722    -0.038040
H      1.818537     1.037066     0.372179
9
Iteration 1, Energy=-154.0849708820, |grad|=0.035094
C     -0.978177     0.054365     0.032267
C      0.483032    -0.324225    -0.185418
O      1.313796     0.319380     0.752837
H     -1.355398     0.732475    -0.733440
H     -1.600947    -0.840538     0.030813
H     -1.070298     0.562238     0.992956
H      0.791269    -0.133974    -1.221992
H      0.603824    -1.402234    -0.035695
H      1.812900     1.032512     0.367673
9
Iteration 2, Energy=-154.0855525641, |grad|=0.015882
C     -0.980572     0.055962     0.025149
C      0.485382    -0.322798    -0.179253
O      1.331056     0.312521     0.753421
H     -1.357325     0.736354    -0.738314
H     -1.612045    -0.832437     0.034509
H     -1.072982     0.545639     0.990668
H      0.794820    -0.127776    -1.211446
H      0.611494    -1.392164    -0.028851
H      1.800172     1.024698     0.354117
9
Iteration 3, Energy=-154.0857041185, |grad|=0.012918
C     -0.979866     0.055951     0.024226
C      0.487718    -0.323802    -0.177507
O      1.336536     0.309057     0.751367
H     -1.357812     0.739262    -0.740843
H     -1.617745    -0.830150     0.033355
H     -1.075975     0.541528     0.993742
H      0.798074    -0.123818    -1.206927
H      0.613990    -1.392890    -0.024920
H      1.795081     1.024862     0.347508
9
Iteration 4, Energy=-154.0858879114, |grad|=0.019755
C     -0.984349     0.059975     0.025899
C      0.492191    -0.332712    -0.172545
O      1.350274     0.301923     0.745186
H     -1.353411     0.743306    -0.740109
H     -1.629306    -0.822421     0.024813
H     -1.085134     0.532524     1.000771
H      0.809041    -0.114233    -1.198539
H      0.618760    -1.399964    -0.015309
H      1.781934     1.031603     0.329834
9
Iteration 0, Energy=-154.0378396116, |grad|=0.558825
C     -0.905691     0.116632     0.039997
C      0.578310    -0.366860    -0.179545
O      1.268780     0.271992     0.679680
H     -1.368089     0.650752    -0.829576
H     -1.586276    -0.793072     0.082127
H     -1.142159     0.512822     0.921933
H      0.749537    -0.122233    -1.212013
H      0.669900    -1.370585     0.010389
H      1.871588     1.014980     0.469821
9
Iteration -1, Energy=-154.0858879114, |grad|=0.019755
C     -0.984349     0.059975     0.025899
C      0.492191    -0.332712    -0.172545
O      1.350274     0.301923     0.745186
H     -1.353411     0.743306    -0.740109
H     -1.629306    -0.822421     0.024813
H     -1.085134     0.532524     1.000771
H      0.809041    -0.114233    -1.198539
H      0.618760    -1.399964    -0.015309
H      1.781934     1.031603     0.329834
9
Iteration 0, Energy=-154.0859565451, |grad|=0.009760
C     -0.981954     0.057697     0.026682
C      0.490914    -0.330743    -0.173223
O      1.350611     0.302731     0.744626
H     -1.352888     0.744321    -0.739948
H     -1.629267    -0.822193     0.023716
H     -1.085654     0.533271     1.001545
H      0.808783    -0.115457    -1.198207
H      0.618427    -1.401522    -0.015309
H      1.781028     1.031895     0.330117
9
Iteration 1, Energy=-154.0859975546, |grad|=0.009758
C     -0.979824     0.056415     0.027604
C      0.490388    -0.330369    -0.173284
O      1.350379     0.303304     0.743840
H     -1.351326     0.745188    -0.738538
H     -1.629111    -0.822165     0.021705
H     -1.086398     0.534042     1.002367
H      0.808331    -0.117405    -1.198184
H      0.617654    -1.402515    -0.015595
H      1.779906     1.033506     0.330084
9
Iteration 2, Energy=-154.0860846868, |grad|=0.014129
C     -0.976153     0.054511     0.030372
C      0.490270    -0.331176    -0.173151
O      1.350274     0.305554     0.741346
H     -1.345762     0.747466    -0.733449
H     -1.628222    -0.821957     0.015372
H     -1.088386     0.535496     1.004344
H      0.806840    -0.123462    -1.198516
H      0.615292    -1.404803    -0.016344
H      1.775846     1.038371     0.330025
9
Iteration 3, Energy=-154.0861938558, |grad|=0.019303
C     -0.972940     0.053201     0.034639
C      0.490891    -0.333048    -0.171924
O      1.350322     0.306741     0.738365
H     -1.335240     0.752593    -0.724820
H     -1.626393    -0.821279     0.004225
H     -1.091206     0.535669     1.007862
H      0.804117    -0.134328    -1.200232
H      0.612077    -1.408864    -0.016150
H      1.768372     1.049314     0.328034
9
Iteration 4, Energy=-154.0863281009, |grad|=0.019805
C     -0.969211     0.053445     0.040207
C      0.491693    -0.339449    -0.169597
O      1.355035     0.312665     0.731446
H     -1.317962     0.762525    -0.711517
H     -1.623841    -0.820179    -0.013760
H     -1.095249     0.533216     1.014150
H      0.799524    -0.151887    -1.203281
H      0.607655    -1.413863    -0.014183
H      1.752356     1.063527     0.326535
9
Iteration 0, Energy=-154.0233734980, |grad|=0.535829
C     -1.005000     0.094681     0.010639
C      0.388172    -0.221760    -0.105019
O      1.307628     0.298878     0.653335
H     -1.328726     0.667583    -0.748664
H     -1.671809    -0.808737     0.107523
H     -1.040348     0.519658     0.987509
H      0.860095    -0.209912    -1.318353
H      0.613456    -1.345846     0.026039
H      1.879443     0.948677     0.384185
9
Iteration -1, Energy=-154.0863281009, |grad|=0.019805
C     -0.969211     0.053445     0.040207
C      0.491693    -0.339449    -0.169597
O      1.355035     0.312665     0.731446
H     -1.317962     0.762525    -0.711517
H     -1.623841    -0.820179    -0.013760
H     -1.095249     0.533216     1.014150
H      0.799524    -0.151887    -1.203281
H      0.607655    -1.413863    -0.014183
H      1.752356     1.063527     0.326535
9
Iteration 0, Energy=-154.0864181960, |grad|=0.026360
C     -0.973739     0.056865     0.038188
C      0.494543    -0.340611    -0.168995
O      1.355158     0.306477     0.732479
H     -1.317796     0.765164    -0.713003
H     -1.624087    -0.818925    -0.013094
H     -1.093940     0.527729     1.014485
H      0.798953    -0.151692    -1.203085
H      0.609709    -1.412197    -0.010183
H      1.751199     1.067189     0.323207
9
Iteration 1, Energy=-154.0865155175, |grad|=0.015555
C     -0.973881     0.057293     0.037266
C      0.493912    -0.340773    -0.168957
O      1.357492     0.307167     0.731519
H     -1.317993     0.766916    -0.714035
H     -1.624502    -0.818362    -0.012978
H     -1.093511     0.525440     1.015058
H      0.798879    -0.151702    -1.203036
H      0.610589    -1.411990    -0.008274
H      1.749015     1.066010     0.323436
9
Iteration 2, Energy=-154.0866646141, |grad|=0.011495
C     -0.974536     0.059362     0.033651
C      0.492651    -0.340910    -0.168521
O      1.364038     0.305325     0.729015
H     -1.318572     0.773902    -0.717738
H     -1.626277    -0.815959    -0.012843
H     -1.091780     0.515979     1.017321
H      0.798483    -0.152027    -1.202738
H      0.614096    -1.411021    -0.000242
H      1.741897     1.065348     0.322096
9
Iteration 3, Energy=-154.0867353348, |grad|=0.010806
C     -0.973285     0.060468     0.031431
C      0.492074    -0.341193    -0.168263
O      1.367653     0.302363     0.726813
H     -1.318528     0.779122    -0.719068
H     -1.628001    -0.813683    -0.014200
H     -1.090764     0.508984     1.019219
H      0.798318    -0.153245    -1.202371
H      0.615989    -1.410325     0.006137
H      1.736543     1.067510     0.320302
9
Iteration 4, Energy=-154.0868700267, |grad|=0.014273
C     -0.972566     0.063465     0.028121
C      0.494287    -0.344635    -0.168175
O      1.375511     0.297910     0.719619
H     -1.315762     0.789286    -0.716611
H     -1.631209    -0.806684    -0.021327
H     -1.088682     0.493734     1.023014
H      0.798302    -0.158928    -1.201944
H      0.617708    -1.408978     0.020301
H      1.722409     1.074830     0.317002
9
Iteration 0, Energy=-154.0288861050, |grad|=0.567559
C     -0.907581     0.011799    -0.027202
C      0.418050    -0.263270    -0.136140
O      1.282953     0.246014     0.803195
H     -1.290575     0.717597    -0.688289
H     -1.640572    -0.887628    -0.030312
H     -1.031837     0.540945     0.989974
H      0.697730    -0.232129    -1.238661
H      0.530638    -1.338504    -0.114784
H      1.787625     1.069062     0.348033
9
Iteration -1, Energy=-154.0868700267, |grad|=0.014273
C     -0.972566     0.063465     0.028121
C      0.494287    -0.344635    -0.168175
O      1.375511     0.297910     0.719619
H     -1.315762     0.789286    -0.716611
H     -1.631209    -0.806684    -0.021327
H     -1.088682     0.493734     1.023014
H      0.798302    -0.158928    -1.201944
H      0.617708    -1.408978     0.020301
H      1.722409     1.074830     0.317002
9
Iteration 0, Energy=-154.0869499029, |grad|=0.023998
C     -0.968993     0.061177     0.031068
C      0.493342    -0.343214    -0.168027
O      1.373605     0.296820     0.719891
H     -1.313116     0.789536    -0.711749
H     -1.631514    -0.806235    -0.026696
H     -1.089309     0.495670     1.023827
H      0.799216    -0.163435    -1.203842
H      0.615076    -1.412188     0.019855
H      1.721693     1.081869     0.315673
9
Iteration 1, Energy=-154.0870470516, |grad|=0.014857
C     -0.968112     0.060579     0.032380
C      0.493525    -0.344457    -0.168165
O      1.374200     0.299612     0.718543
H     -1.311215     0.789670    -0.708464
H     -1.631466    -0.805879    -0.030021
H     -1.089599     0.496555     1.024486
H      0.799602    -0.166283    -1.204701
H      0.613318    -1.413178     0.019466
H      1.719746     1.083381     0.316477
9
Iteration 2, Energy=-154.0871875099, |grad|=0.010650
C     -0.966246     0.059010     0.036431
C      0.495713    -0.348312    -0.168611
O      1.374861     0.305733     0.714565
H     -1.304411     0.791170    -0.697606
H     -1.631097    -0.804536    -0.041338
H     -1.090355     0.498555     1.027139
H      0.800426    -0.176559    -1.207021
H      0.607806    -1.416164     0.018845
H      1.713302     1.091103     0.317597
9
Iteration 3, Energy=-154.0872659718, |grad|=0.012421
C     -0.965389     0.058629     0.037743
C      0.496659    -0.349725    -0.168514
O      1.375982     0.307265     0.711926
H     -1.300358     0.795071    -0.693142
H     -1.630832    -0.803715    -0.047396
H     -1.090306     0.497026     1.029523
H      0.800216    -0.183171    -1.207667
H      0.606159    -1.417517     0.020266
H      1.707869     1.096137     0.317261
9
Iteration 4, Energy=-154.0879345582, |grad|=0.032345
C     -0.954722     0.062880     0.046477
C      0.500140    -0.367773    -0.163690
O      1.393081     0.317854     0.683295
H     -1.255817     0.842707    -0.647501
H     -1.628484    -0.793125    -0.110495
H     -1.088388     0.468120     1.054424
H      0.796905    -0.253316    -1.216482
H      0.594281    -1.429024     0.043693
H      1.643003     1.151677     0.310279
9
Iteration 0, Energy=-153.9790646571, |grad|=0.809040
C     -0.865664     0.123479     0.110167
C      0.398538    -0.232113    -0.272830
O      1.218182     0.382065     0.820558
H     -1.368101     0.703938    -0.657613
H     -1.541745    -0.798655     0.079909
H     -0.980779     0.499454     0.949714
H      0.817278    -0.212414    -1.161160
H      0.598933    -1.456857    -0.062353
H      1.882569     1.146850     0.436147
9
Iteration -1, Energy=-154.0879345582, |grad|=0.032345
C     -0.954722     0.062880     0.046477
C      0.500140    -0.367773    -0.163690
O      1.393081     0.317854     0.683295
H     -1.255817     0.842707    -0.647501
H     -1.628484    -0.793125    -0.110495
H     -1.088388     0.468120     1.054424
H      0.796905    -0.253316    -1.216482
H      0.594281    -1.429024     0.043693
H      1.643003     1.151677     0.310279
9
Iteration 0, Energy=-154.0882287152, |grad|=0.026992
C     -0.955042     0.058919     0.044642
C      0.499888    -0.360733    -0.166618
O      1.394771     0.314746     0.681468
H     -1.256325     0.846982    -0.650912
H     -1.626830    -0.787294    -0.108110
H     -1.088065     0.461721     1.053907
H      0.794944    -0.252255    -1.213839
H      0.597679    -1.430832     0.050250
H      1.638980     1.148746     0.309212
9
Iteration 1, Energy=-154.0884518122, |grad|=0.021363
C     -0.954425     0.061247     0.041988
C      0.499606    -0.361499    -0.166045
O      1.396366     0.312239     0.679577
H     -1.256471     0.849500    -0.652612
H     -1.626912    -0.784205    -0.106511
H     -1.087699     0.455006     1.053214
H      0.793591    -0.250600    -1.213385
H      0.600617    -1.428630     0.055618
H      1.635327     1.146943     0.308156
9
Iteration 2, Energy=-154.0886885192, |grad|=0.037733
C     -0.949261     0.069988     0.034862
C      0.499791    -0.367100    -0.167530
O      1.405068     0.299324     0.676932
H     -1.255072     0.863129    -0.658373
H     -1.632055    -0.775026    -0.106852
H     -1.086270     0.429078     1.055204
H      0.788476    -0.247342    -1.214059
H      0.609943    -1.421958     0.079466
H      1.619380     1.149906     0.300350
9
Iteration 3, Energy=-154.0888259896, |grad|=0.025512
C     -0.950662     0.071295     0.032129
C      0.500717    -0.369413    -0.164719
O      1.409283     0.305612     0.670332
H     -1.253285     0.865990    -0.657554
H     -1.632507    -0.771148    -0.108567
H     -1.085546     0.422696     1.056323
H      0.787878    -0.247726    -1.215650
H      0.611295    -1.421020     0.085080
H      1.612826     1.143714     0.302626
9
Iteration 4, Energy=-154.0889089519, |grad|=0.010397
C     -0.951083     0.069786     0.034125
C      0.501060    -0.368089    -0.164991
O      1.407199     0.304803     0.671862
H     -1.252947     0.864174    -0.656014
H     -1.632240    -0.772877    -0.109783
H     -1.085762     0.426912     1.056371
H      0.788738    -0.249177    -1.215591
H      0.609459    -1.422589     0.081614
H      1.615575     1.147057     0.302407
9
Iteration 0, Energy=-154.0026241341, |grad|=0.940170
C     -0.987446    -0.002233     0.093549
C      0.516310    -0.296105    -0.092500
O      1.207489     0.302553     0.653548
H     -1.265485     0.732010    -0.699740
H     -1.544483    -0.955039    -0.006425
H     -1.127640     0.574493     1.083158
H      0.740205    -0.172148    -1.320418
H      0.546382    -1.437068     0.011177
H      1.765924     1.139959     0.428676
9
Iteration -1, Energy=-154.0889089519, |grad|=0.010397
C     -0.951083     0.069786     0.034125
C      0.501060    -0.368089    -0.164991
O      1.407199     0.304803     0.671862
H     -1.252947     0.864174    -0.656014
H     -1.632240    -0.772877    -0.109783
H     -1.085762     0.426912     1.056371
H      0.788738    -0.249177    -1.215591
H      0.609459    -1.422589     0.081614
H      1.615575     1.147057     0.302407
9
Iteration 0, Energy=-154.0889789616, |grad|=0.022953
C     -0.951175     0.067619     0.036628
C      0.501645    -0.366182    -0.164979
O      1.406460     0.303759     0.668775
H     -1.248757     0.865263    -0.650395
H     -1.632442    -0.770739    -0.116483
H     -1.085485     0.426264     1.057394
H      0.789216    -0.255176    -1.215097
H      0.607631    -1.425150     0.082848
H      1.612908     1.154341     0.301308
9
Iteration 1, Energy=-154.0890799686, |grad|=0.016298
C     -0.950622     0.066903     0.037904
C      0.501357    -0.367366    -0.164720
O      1.407400     0.306531     0.665806
H     -1.245694     0.866364    -0.646220
H     -1.632887    -0.769578    -0.121505
H     -1.085383     0.425494     1.058562
H      0.789533    -0.259518    -1.215138
H      0.606237    -1.425909     0.083631
H      1.610058     1.157079     0.301681
9
Iteration 2, Energy=-154.0893279354, |grad|=0.015040
C     -0.946837     0.064367     0.042812
C      0.500718    -0.374148    -0.163542
O      1.411823     0.316111     0.653885
H     -1.231153     0.874117    -0.627317
H     -1.635413    -0.764325    -0.145274
H     -1.085197     0.419944     1.065353
H      0.790083    -0.280588    -1.215930
H      0.600491    -1.428371     0.088836
H      1.595486     1.172894     0.301179
9
Iteration 3, Energy=-154.0895194540, |grad|=0.020307
C     -0.944589     0.062727     0.044954
C      0.502229    -0.376885    -0.163430
O      1.416292     0.321893     0.645716
H     -1.220267     0.884667    -0.615524
H     -1.636463    -0.758938    -0.161663
H     -1.085310     0.411287     1.071139
H      0.788550    -0.296744    -1.217055
H      0.598500    -1.430909     0.096498
H      1.581058     1.182902     0.299365
9
Iteration 4, Energy=-154.0902686462, |grad|=0.035122
C     -0.930943     0.062666     0.052642
C      0.510630    -0.396736    -0.158150
O      1.440755     0.346467     0.600617
H     -1.159279     0.946921    -0.550861
H     -1.641367    -0.727735    -0.250054
H     -1.086309     0.353872     1.101761
H      0.778113    -0.385076    -1.225996
H      0.592104    -1.440291     0.144449
H      1.496295     1.239912     0.285592
9
Iteration 0, Energy=-154.0516522422, |grad|=0.372485
C     -0.944226     0.030911     0.096976
C      0.459957    -0.323523    -0.218238
O      1.350762     0.394783     0.706080
H     -1.294510     0.668954    -0.787460
H     -1.581419    -0.944065     0.120833
H     -1.150485     0.507270     1.104881
H      0.756386    -0.061501    -1.259380
H      0.513573    -1.526047    -0.007739
H      1.749019     1.120280     0.387315
9
Iteration -1, Energy=-154.0902686462, |grad|=0.035122
C     -0.930943     0.062666     0.052642
C      0.510630    -0.396736    -0.158150
O      1.440755     0.346467     0.600617
H     -1.159279     0.946921    -0.550861
H     -1.641367    -0.727735    -0.250054
H     -1.086309     0.353872     1.101761
H      0.778113    -0.385076    -1.225996
H      0.592104    -1.440291     0.144449
H      1.496295     1.239912     0.285592
9
Iteration 0, Energy=-154.0908939526, |grad|=0.027020
C     -0.933232     0.067181     0.047306
C      0.510518    -0.391851    -0.160443
O      1.436716     0.339868     0.595994
H     -1.158590     0.947621    -0.551236
H     -1.633798    -0.717626    -0.242212
H     -1.087198     0.341715     1.094880
H      0.774675    -0.381509    -1.221426
H      0.599723    -1.437524     0.153597
H      1.491186     1.232126     0.283540
9
Iteration 1, Energy=-154.0912333381, |grad|=0.015511
C     -0.926080     0.073231     0.043692
C      0.504732    -0.395801    -0.158627
O      1.435607     0.335098     0.593327
H     -1.159289     0.953370    -0.554476
H     -1.630182    -0.710925    -0.235930
H     -1.088985     0.327343     1.089327
H      0.771489    -0.376780    -1.221184
H      0.608039    -1.429416     0.163406
H      1.484668     1.223881     0.280465
9
Iteration 2, Energy=-154.0913111146, |grad|=0.016609
C     -0.924448     0.073822     0.041918
C      0.506836    -0.395474    -0.160338
O      1.437163     0.330947     0.595295
H     -1.158840     0.959375    -0.557004
H     -1.631017    -0.709660    -0.235817
H     -1.090097     0.321346     1.091473
H      0.769013    -0.375679    -1.222102
H      0.610782    -1.428523     0.169787
H      1.480608     1.223847     0.276789
9
Iteration 3, Energy=-154.0913631954, |grad|=0.007699
C     -0.925039     0.074586     0.041549
C      0.508577    -0.396338    -0.160122
O      1.438637     0.333040     0.595176
H     -1.157998     0.961579    -0.557243
H     -1.632048    -0.709726    -0.237197
H     -1.090348     0.319246     1.093022
H      0.768261    -0.375770    -1.223462
H      0.611109    -1.428654     0.172122
H      1.478849     1.222036     0.276156
9
Iteration 4, Energy=-154.0913906250, |grad|=0.007264
C     -0.925764     0.075410     0.041692
C      0.509873    -0.397021    -0.159112
O      1.439982     0.334168     0.594717
H     -1.156555     0.963415    -0.556566
H     -1.633097    -0.709472    -0.239492
H     -1.090497     0.316915     1.094215
H      0.767779    -0.376344    -1.224978
H      0.611281    -1.428923     0.174544
H      1.476999     1.221852     0.274979
9
Iteration 0, Energy=-153.9728903695, |grad|=1.135419
C     -0.873905    -0.013351     0.033506
C      0.473841    -0.266760    -0.157624
O      1.272977     0.394870     0.644680
H     -1.296627     0.651564    -0.825683
H     -1.657298    -0.956679    -0.018570
H     -1.044444     0.693212     0.920346
H      0.801861    -0.173801    -1.313756
H      0.501642    -1.377992    -0.136052
H      1.760618     0.959446     0.453595
9
Iteration -1, Energy=-154.0913906250, |grad|=0.007264
C     -0.925764     0.075410     0.041692
C      0.509873    -0.397021    -0.159112
O      1.439982     0.334168     0.594717
H     -1.156555     0.963415    -0.556566
H     -1.633097    -0.709472    -0.239492
H     -1.090497     0.316915     1.094215
H      0.767779    -0.376344    -1.224978
H      0.611281    -1.428923     0.174544
H      1.476999     1.221852     0.274979
9
Iteration 0, Energy=-154.0914223721, |grad|=0.016537
C     -0.925512     0.074006     0.043306
C      0.507270    -0.396375    -0.158457
O      1.440202     0.333119     0.592075
H     -1.153180     0.963134    -0.551954
H     -1.632666    -0.706509    -0.244295
H     -1.090637     0.314645     1.093524
H      0.768164    -0.379115    -1.223442
H      0.610880    -1.429494     0.176399
H      1.475479     1.226588     0.272845
9
Iteration 1, Energy=-154.0914682519, |grad|=0.010123
C     -0.925383     0.073590     0.043722
C      0.506650    -0.397213    -0.158079
O      1.440525     0.335323     0.589904
H     -1.151270     0.963383    -0.549392
H     -1.632689    -0.705111    -0.247164
H     -1.090890     0.313242     1.093838
H      0.768125    -0.380740    -1.222661
H      0.610502    -1.429406     0.177405
H      1.474429     1.226931     0.272427
9
Iteration 2, Energy=-154.0915478200, |grad|=0.012005
C     -0.924740     0.072058     0.045060
C      0.505831    -0.399422    -0.156831
O      1.441327     0.340472     0.583282
H     -1.144579     0.965303    -0.540778
H     -1.633159    -0.700525    -0.257405
H     -1.092024     0.307969     1.095642
H      0.767594    -0.386736    -1.220223
H      0.609334    -1.429281     0.181429
H      1.470416     1.230162     0.269824
9
Iteration 3, Energy=-154.0916355192, |grad|=0.016723
C     -0.923616     0.070309     0.046588
C      0.506387    -0.401682    -0.155424
O      1.442517     0.345581     0.576380
H     -1.136330     0.969761    -0.530830
H     -1.634284    -0.695349    -0.270260
H     -1.093903     0.300493     1.098874
H      0.766289    -0.394699    -1.218190
H      0.608294    -1.429363     0.187317
H      1.464648     1.234948     0.265544
9
Iteration 4, Energy=-154.0918804800, |grad|=0.023599
C     -0.920526     0.066664     0.050879
C      0.508543    -0.407814    -0.150843
O      1.447672     0.360003     0.558048
H     -1.110604     0.987488    -0.500843
H     -1.637172    -0.678949    -0.309264
H     -1.100735     0.273690     1.108883
H      0.761173    -0.420669    -1.215171
H      0.607219    -1.430027     0.208118
H      1.444430     1.249615     0.250191
9
Iteration 0, Energy=-154.0032220312, |grad|=0.761512
C     -0.858593     0.122130     0.017464
C      0.418118    -0.256762    -0.100554
O      1.235131     0.297080     0.678204
H     -1.419474     0.775462    -0.793239
H     -1.577005    -0.914316     0.000726
H     -1.155885     0.516133     1.053357
H      0.708909    -0.171601    -1.188072
H      0.511910    -1.345413    -0.142987
H      1.782522     1.010707     0.309458
9
Iteration -1, Energy=-154.0918804800, |grad|=0.023599
C     -0.920526     0.066664     0.050879
C      0.508543    -0.407814    -0.150843
O      1.447672     0.360003     0.558048
H     -1.110604     0.987488    -0.500843
H     -1.637172    -0.678949    -0.309264
H     -1.100735     0.273690     1.108883
H      0.761173    -0.420669    -1.215171
H      0.607219    -1.430027     0.208118
H      1.444430     1.249615     0.250191
9
Iteration 0, Energy=-154.0919655475, |grad|=0.018392
C     -0.920668     0.067471     0.050497
C      0.509466    -0.405858    -0.151157
O      1.447449     0.354767     0.560641
H     -1.110778     0.989854    -0.501539
H     -1.636345    -0.678328    -0.308027
H     -1.101478     0.271399     1.108441
H      0.760368    -0.421364    -1.216509
H      0.608922    -1.430272     0.209891
H      1.443064     1.252332     0.247761
9
Iteration 1, Energy=-154.0920162391, |grad|=0.012822
C     -0.920519     0.068365     0.050103
C      0.509630    -0.406128    -0.151242
O      1.447571     0.355560     0.561088
H     -1.110898     0.991192    -0.501804
H     -1.635899    -0.678034    -0.307374
H     -1.101975     0.269956     1.108252
H      0.759909    -0.421716    -1.217278
H      0.609825    -1.429933     0.210717
H      1.442357     1.250737     0.247537
9
Iteration 2, Energy=-154.0921305251, |grad|=0.006788
C     -0.919334     0.073102     0.047828
C      0.510904    -0.406817    -0.151620
O      1.447490     0.356195     0.563792
H     -1.111442     0.998607    -0.502908
H     -1.633454    -0.676234    -0.304077
H     -1.104811     0.261859     1.107288
H      0.757374    -0.423821    -1.220910
H      0.614910    -1.427953     0.215495
H      1.438363     1.245061     0.245113
9
Iteration 3, Energy=-154.0921535091, |grad|=0.004914
C     -0.918131     0.074295     0.047086
C      0.511057    -0.407189    -0.151788
O      1.446644     0.355414     0.563276
H     -1.111176     1.001420    -0.502027
H     -1.632466    -0.674906    -0.304091
H     -1.106052     0.258399     1.106929
H      0.756616    -0.425086    -1.220615
H      0.616687    -1.426657     0.217602
H      1.436820     1.244310     0.243629
9
Iteration 4, Energy=-154.0921869467, |grad|=0.005945
C     -0.917679     0.075444     0.046422
C      0.510520    -0.406914    -0.151401
O      1.446229     0.355150     0.561198
H     -1.109340     1.006018    -0.498128
H     -1.630605    -0.671454    -0.306701
H     -1.108044     0.251698     1.106258
H      0.755917    -0.428574    -1.220121
H      0.619193    -1.425472     0.222232
H      1.433809     1.244106     0.240242
9
Iteration 0, Energy=-154.0516460191, |grad|=0.389001
C     -1.021384    -0.003457     0.002626
C      0.532927    -0.339616    -0.235805
O      1.257476     0.402928     0.660464
H     -1.415540     0.641891    -0.807653
H     -1.505300    -0.910209    -0.016854
H     -1.033881     0.604125     0.937609
H      0.754766    -0.068370    -1.177490
H      0.586444    -1.373220    -0.139494
H      1.799610     1.093851     0.487704
9
Iteration -1, Energy=-154.0921869467, |grad|=0.005945
C     -0.917679     0.075444     0.046422
C      0.510520    -0.406914    -0.151401
O      1.446229     0.355150     0.561198
H     -1.109340     1.006018    -0.498128
H     -1.630605    -0.671454    -0.306701
H     -1.108044     0.251698     1.106258
H      0.755917    -0.428574    -1.220121
H      0.619193    -1.425472     0.222232
H      1.433809     1.244106     0.240242
9
Iteration 0, Energy=-154.0922042526, |grad|=0.008397
C     -0.917227     0.075589     0.047145
C      0.510715    -0.408954    -0.151079
O      1.447089     0.357086     0.560208
H     -1.108316     1.005871    -0.496100
H     -1.631910    -0.671735    -0.309939
H     -1.108223     0.251453     1.107308
H      0.756138    -0.429584    -1.219645
H      0.617968    -1.424999     0.222409
H      1.433767     1.245274     0.239692
9
Iteration 1, Energy=-154.0922236261, |grad|=0.006312
C     -0.917371     0.074554     0.047635
C      0.510987    -0.408882    -0.150871
O      1.447635     0.357661     0.559337
H     -1.107262     1.006084    -0.494296
H     -1.632527    -0.671258    -0.312635
H     -1.108401     0.251059     1.108187
H      0.756312    -0.430721    -1.219209
H      0.617057    -1.425415     0.223057
H      1.433570     1.246919     0.238795
9
Iteration 2, Energy=-154.0922594988, |grad|=0.007183
C     -0.918537     0.070910     0.049219
C      0.511544    -0.408146    -0.149548
O      1.449357     0.361762     0.554956
H     -1.102910     1.007146    -0.486927
H     -1.633760    -0.668245    -0.322453
H     -1.109287     0.248258     1.110710
H      0.756871    -0.435474    -1.217877
H      0.614250    -1.427039     0.226184
H      1.432472     1.250828     0.235736
9
Iteration 3, Energy=-154.0922843093, |grad|=0.009941
C     -0.918420     0.070867     0.050107
C      0.511334    -0.408869    -0.148564
O      1.449781     0.362241     0.552617
H     -1.099780     1.008457    -0.481447
H     -1.633775    -0.665557    -0.328472
H     -1.110550     0.244063     1.111288
H      0.756734    -0.439126    -1.216965
H      0.613734    -1.426605     0.229126
H      1.430943     1.254528     0.232311
9
Iteration 4, Energy=-154.0923184009, |grad|=0.010952
C     -0.918005     0.070831     0.050565
C      0.510838    -0.409409    -0.147964
O      1.449927     0.363773     0.550176
H     -1.096866     1.010653    -0.476502
H     -1.633119    -0.662413    -0.333476
H     -1.112135     0.239083     1.111605
H      0.756248    -0.442765    -1.216093
H      0.613967    -1.425986     0.232469
H      1.429144     1.256233     0.229220
9
Iteration 0, Energy=-154.0306663298, |grad|=0.435388
C     -1.026538    -0.019406     0.023372
C      0.403046    -0.238717    -0.173884
O      1.360514     0.293529     0.807033
H     -1.265518     0.725991    -0.655433
H     -1.650592    -0.921221    -0.031354
H     -1.138553     0.570413     0.995975
H      0.734716    -0.046688    -1.308991
H      0.574076    -1.524817    -0.007801
H      1.814333     1.133878     0.417996
9
Iteration -1, Energy=-154.0923184009, |grad|=0.010952
C     -0.918005     0.070831     0.050565
C      0.510838    -0.409409    -0.147964
O      1.449927     0.363773     0.550176
H     -1.096866     1.010653    -0.476502
H     -1.633119    -0.662413    -0.333476
H     -1.112135     0.239083     1.111605
H      0.756248    -0.442765    -1.216093
H      0.613967    -1.425986     0.232469
H      1.429144     1.256233     0.229220
9
Iteration 0, Energy=-154.0923372542, |grad|=0.006217
C     -0.917660     0.070938     0.050276
C      0.510809    -0.409729    -0.148141
O      1.449828     0.365252     0.549865
H     -1.096863     1.011556    -0.476620
H     -1.632838    -0.662132    -0.333224
H     -1.112493     0.238272     1.111666
H      0.755937    -0.442962    -1.216136
H      0.614415    -1.425686     0.232887
H      1.428866     1.254492     0.229427
9
Iteration 1, Energy=-154.0923491176, |grad|=0.006308
C     -0.917286     0.071279     0.049958
C      0.510952    -0.409788    -0.148250
O      1.449563     0.365372     0.549916
H     -1.096796     1.012674    -0.476678
H     -1.632484    -0.661766    -0.332944
H     -1.112963     0.237099     1.111643
H      0.755524    -0.443282    -1.216245
H      0.615097    -1.425321     0.233546
H      1.428393     1.253733     0.229055
9
Iteration 2, Energy=-154.0923857057, |grad|=0.005564
C     -0.915977     0.073968     0.048799
C      0.511432    -0.410217    -0.148302
O      1.448504     0.364896     0.550441
H     -1.096022     1.017710    -0.476146
H     -1.630756    -0.659852    -0.332191
H     -1.115232     0.230785     1.110988
H      0.753623    -0.445164    -1.217086
H      0.618569    -1.423496     0.237079
H      1.425860     1.251371     0.226419
9
Iteration 3, Energy=-154.0923992253, |grad|=0.009760
C     -0.916032     0.073241     0.048362
C      0.510783    -0.409063    -0.148290
O      1.448809     0.365227     0.549720
H     -1.094026     1.021406    -0.473349
H     -1.629404    -0.656923    -0.334539
H     -1.117004     0.225874     1.111007
H      0.752676    -0.447737    -1.216868
H      0.620328    -1.423432     0.240697
H      1.423870     1.251407     0.223261
9
Iteration 4, Energy=-154.0924205020, |grad|=0.006981
C     -0.915826     0.074295     0.048429
C      0.510877    -0.409775    -0.147645
O      1.448771     0.365530     0.548935
H     -1.092593     1.023177    -0.471001
H     -1.629112    -0.655574    -0.336735
H     -1.118149     0.222590     1.110920
H      0.752123    -0.449411    -1.216773
H      0.621226    -1.422665     0.242734
H      1.422683     1.251833     0.221136
9
Iteration 0, Energy=-154.0266760065, |grad|=0.459620
C     -0.986456     0.145440     0.058193
C      0.450098    -0.225666    -0.102215
O      1.277402     0.403326     0.710279
H     -1.419273     0.805305    -0.728253
H     -1.612308    -0.961533     0.009572
H     -0.990475     0.670613     1.013227
H      0.848585    -0.217025    -1.311237
H      0.528247    -1.381117    -0.133476
H      1.925031     1.087568     0.381966
9
Iteration -1, Energy=-154.0924205020, |grad|=0.006981
C     -0.915826     0.074295     0.048429
C      0.510877    -0.409775    -0.147645
O      1.448771     0.365530     0.548935
H     -1.092593     1.023177    -0.471001
H     -1.629112    -0.655574    -0.336735
H     -1.118149     0.222590     1.110920
H      0.752123    -0.449411    -1.216773
H      0.621226    -1.422665     0.242734
H      1.422683     1.251833     0.221136
9
Iteration 0, Energy=-154.0924292483, |grad|=0.007069
C     -0.915486     0.075702     0.049076
C      0.511555    -0.411585    -0.146897
O      1.448606     0.366355     0.548026
H     -1.092093     1.022364    -0.469713
H     -1.630052    -0.656061    -0.338491
H     -1.118237     0.222449     1.111076
H      0.752269    -0.449718    -1.216505
H      0.620569    -1.421940     0.242503
H      1.422869     1.252435     0.220926
9
Iteration 1, Energy=-154.0924367620, |grad|=0.004140
C     -0.915563     0.074940     0.049097
C      0.511465    -0.411065    -0.147042
O      1.448735     0.366323     0.547902
H     -1.091886     1.022524    -0.469410
H     -1.630008    -0.655737    -0.338933
H     -1.118313     0.222421     1.111293
H      0.752302    -0.449950    -1.216317
H      0.620423    -1.422273     0.242733
H      1.422845     1.252818     0.220677
9
Iteration 2, Energy=-154.0924493307, |grad|=0.003610
C     -0.915722     0.073361     0.049454
C      0.511409    -0.410565    -0.146994
O      1.449136     0.367082     0.546955
H     -1.090917     1.022632    -0.467689
H     -1.630268    -0.654867    -0.341257
H     -1.118628     0.222108     1.112014
H      0.752484    -0.450901    -1.215690
H      0.619668    -1.422861     0.243375
H      1.422838     1.254011     0.219831
9
Iteration 3, Energy=-154.0924620840, |grad|=0.004991
C     -0.915967     0.071896     0.050139
C      0.511388    -0.410608    -0.146515
O      1.449711     0.368509     0.545362
H     -1.089221     1.022689    -0.464595
H     -1.630744    -0.653556    -0.345185
H     -1.119229     0.221102     1.112927
H      0.752735    -0.452553    -1.214896
H      0.618600    -1.423310     0.244449
H      1.422728     1.255830     0.218313
9
Iteration 4, Energy=-154.0924849292, |grad|=0.006482
C     -0.916123     0.070636     0.051091
C      0.511186    -0.410958    -0.145738
O      1.450409     0.371459     0.542668
H     -1.085944     1.024235    -0.458886
H     -1.630853    -0.650564    -0.351740
H     -1.121016     0.217037     1.114013
H      0.752594    -0.456128    -1.213787
H      0.617959    -1.423437     0.247468
H      1.421788     1.257721     0.214912
9
Iteration 0, Energy=-154.0063289158, |grad|=0.819170
C     -0.916094     0.073263     0.033846
C      0.507400    -0.239524    -0.129402
O      1.281255     0.243619     0.661935
H     -1.289453     0.751116    -0.682601
H     -1.574721    -0.931308     0.046763
H     -1.000941     0.510538     0.925907
H      0.873806    -0.144196    -1.305246
H      0.667745    -1.438680     0.027183
H      1.857234     1.008402     0.428972
9
Iteration -1, Energy=-154.0924849292, |grad|=0.006482
C     -0.916123     0.070636     0.051091
C      0.511186    -0.410958    -0.145738
O      1.450409     0.371459     0.542668
H     -1.085944     1.024235    -0.458886
H     -1.630853    -0.650564    -0.351740
H     -1.121016     0.217037     1.114013
H      0.752594    -0.456128    -1.213787
H      0.617959    -1.423437     0.247468
H      1.421788     1.257721     0.214912
9
Iteration 0, Energy=-154.0924938783, |grad|=0.004279
C     -0.915884     0.072170     0.051049
C      0.511539    -0.412065    -0.145111
O      1.450053     0.371015     0.542711
H     -1.085818     1.024475    -0.458560
H     -1.630884    -0.650660    -0.351839
H     -1.121292     0.216060     1.113753
H      0.752389    -0.456324    -1.214073
H      0.618375    -1.422544     0.247659
H      1.421523     1.257873     0.214410
9
Iteration 1, Energy=-154.0924991131, |grad|=0.003848
C     -0.915727     0.072483     0.050947
C      0.511550    -0.412091    -0.145139
O      1.449923     0.371057     0.542723
H     -1.085682     1.025124    -0.458407
H     -1.630665    -0.650389    -0.351831
H     -1.121595     0.215200     1.113644
H      0.752160    -0.456606    -1.214111
H      0.618798    -1.422318     0.248132
H      1.421238     1.257541     0.214042
9
Iteration 2, Energy=-154.0925063480, |grad|=0.013733
C     -0.914904     0.074352     0.049320
C      0.511569    -0.411367    -0.144552
O      1.448954     0.369548     0.542906
H     -1.083363     1.032257    -0.455193
H     -1.628046    -0.646321    -0.353312
H     -1.125113     0.205439     1.113114
H      0.749889    -0.460432    -1.214614
H      0.623066    -1.420359     0.253985
H      1.417948     1.256883     0.208345
9
Iteration 3, Energy=-154.0925291778, |grad|=0.004575
C     -0.914676     0.074850     0.049828
C      0.511436    -0.412225    -0.144708
O      1.449127     0.372054     0.542049
H     -1.082980     1.032562    -0.454430
H     -1.628232    -0.646173    -0.354261
H     -1.125404     0.204647     1.112961
H      0.749787    -0.460849    -1.214351
H      0.623055    -1.420112     0.254395
H      1.417886     1.255246     0.208517
9
Iteration 4, Energy=-154.0925343449, |grad|=0.003659
C     -0.914785     0.074496     0.050124
C      0.511468    -0.412247    -0.144667
O      1.449305     0.372202     0.541794
H     -1.082834     1.032050    -0.454031
H     -1.628551    -0.646247    -0.354951
H     -1.125268     0.205136     1.113120
H      0.749995    -0.460864    -1.214129
H      0.622566    -1.420338     0.254221
H      1.418104     1.255811     0.208518
9
Iteration 0, Energy=-154.0534028704, |grad|=0.349132
C     -0.927433     0.020955     0.048711
C      0.536581    -0.310966    -0.173281
O      1.274935     0.309066     0.712842
H     -1.318709     0.766781    -0.676874
H     -1.655768    -0.857767    -0.063087
H     -0.989004     0.684228     0.955752
H      0.861726    -0.044692    -1.303015
H      0.533609    -1.468341     0.025696
H      1.798280     1.016494     0.334386
9
Iteration -1, Energy=-154.0925343449, |grad|=0.003659
C     -0.914785     0.074496     0.050124
C      0.511468    -0.412247    -0.144667
O      1.449305     0.372202     0.541794
H     -1.082834     1.032050    -0.454031
H     -1.628551    -0.646247    -0.354951
H     -1.125268     0.205136     1.113120
H      0.749995    -0.460864    -1.214129
H      0.622566    -1.420338     0.254221
H      1.418104     1.255811     0.208518
9
Iteration 0, Energy=-154.0925410133, |grad|=0.007602
C     -0.914835     0.073631     0.050664
C      0.511798    -0.412206    -0.144265
O      1.449498     0.371784     0.541007
H     -1.081981     1.031510    -0.452142
H     -1.629211    -0.645816    -0.357515
H     -1.125472     0.205153     1.113745
H      0.750292    -0.461552    -1.213428
H      0.621615    -1.420626     0.254558
H      1.418297     1.258124     0.207376
9
Iteration 1, Energy=-154.0925499687, |grad|=0.004052
C     -0.914923     0.073109     0.050932
C      0.511756    -0.412432    -0.144092
O      1.449745     0.372888     0.540271
H     -1.081487     1.031327    -0.451082
H     -1.629459    -0.645464    -0.358895
H     -1.125624     0.205033     1.114064
H      0.750445    -0.461973    -1.213094
H      0.621121    -1.420762     0.254779
H      1.418426     1.258275     0.207119
9
Iteration 2, Energy=-154.0925581718, |grad|=0.002870
C     -0.915207     0.071881     0.051559
C      0.511665    -0.412732    -0.143639
O      1.450303     0.374823     0.538723
H     -1.080180     1.031087    -0.448376
H     -1.629923    -0.644417    -0.362293
H     -1.126110     0.204390     1.114779
H      0.750760    -0.463164    -1.212345
H      0.620093    -1.421097     0.255556
H      1.418599     1.259230     0.206036
9
Iteration 3, Energy=-154.0925632351, |grad|=0.003445
C     -0.915335     0.071607     0.051803
C      0.511570    -0.412873    -0.143364
O      1.450503     0.375623     0.538077
H     -1.079362     1.031452    -0.446819
H     -1.629900    -0.643595    -0.364006
H     -1.126631     0.203262     1.115009
H      0.750754    -0.464061    -1.212101
H      0.619954    -1.421088     0.256365
H      1.418447     1.259673     0.205037
9
Iteration 4, Energy=-154.0926046947, |grad|=0.007999
C     -0.915445     0.070067     0.053612
C      0.511289    -0.414020    -0.141072
O      1.451374     0.382020     0.532400
H     -1.071825     1.036874    -0.432714
H     -1.629286    -0.635718    -0.379200
H     -1.132331     0.190694     1.117014
H      0.749910    -0.472838    -1.209767
H      0.619958    -1.420182     0.264867
H      1.416354     1.263103     0.194859
9
Iteration 0, Energy=-154.0381451025, |grad|=0.462325
C     -0.879050     0.140720    -0.002755
C      0.479555    -0.395934    -0.230741
O      1.266382     0.373231     0.772515
H     -1.323273     0.791643    -0.659172
H     -1.607308    -0.894225    -0.024613
H     -1.120717     0.500480     1.079218
H      0.725616    -0.057076    -1.248066
H      0.591452    -1.395584     0.005559
H      1.763139     1.142604     0.360833
9
Iteration -1, Energy=-154.0926046947, |grad|=0.007999
C     -0.915445     0.070067     0.053612
C      0.511289    -0.414020    -0.141072
O      1.451374     0.382020     0.532400
H     -1.071825     1.036874    -0.432714
H     -1.629286    -0.635718    -0.379200
H     -1.132331     0.190694     1.117014
H      0.749910    -0.472838    -1.209767
H      0.619958    -1.420182     0.264867
H      1.416354     1.263103     0.194859
9
Iteration 0, Energy=-154.0926136892, |grad|=0.006748
C     -0.915109     0.070646     0.053325
C      0.511811    -0.413794    -0.140994
O      1.450832     0.379934     0.532954
H     -1.071862     1.037598    -0.432805
H     -1.629126    -0.635638    -0.378845
H     -1.132658     0.189830     1.116882
H      0.749564    -0.472976    -1.209732
H      0.620552    -1.419732     0.265272
H      1.415997     1.264133     0.193943
9
Iteration 1, Energy=-154.0926195113, |grad|=0.004163
C     -0.914982     0.070845     0.053221
C      0.511794    -0.413915    -0.141026
O      1.450751     0.380341     0.532886
H     -1.071872     1.037969    -0.432838
H     -1.629006    -0.635555    -0.378686
H     -1.132807     0.189411     1.116789
H      0.749424    -0.473044    -1.209749
H      0.620804    -1.419552     0.265451
H      1.415894     1.263500     0.193952
9
Iteration 2, Energy=-154.0926298197, |grad|=0.003031
C     -0.914466     0.071764     0.052741
C      0.511872    -0.414082    -0.141104
O      1.450295     0.380643     0.533011
H     -1.071876     1.039663    -0.432935
H     -1.628447    -0.635137    -0.377988
H     -1.133499     0.187435     1.116339
H      0.748776    -0.473405    -1.209848
H      0.622020    -1.418786     0.266375
H      1.415324     1.261905     0.193409
9
Iteration 3, Energy=-154.0926344984, |grad|=0.002504
C     -0.914261     0.072486     0.052404
C      0.511784    -0.414000    -0.141093
O      1.450086     0.380427     0.533327
H     -1.071747     1.041074    -0.432777
H     -1.627906    -0.634624    -0.377606
H     -1.134105     0.185607     1.115879
H      0.748277    -0.473830    -1.210035
H      0.623084    -1.418275     0.267343
H      1.414789     1.261133     0.192557
9
Iteration 4, Energy=-154.0926397579, |grad|=0.002976
C     -0.914327     0.073386     0.052252
C      0.511916    -0.414366    -0.140592
O      1.450018     0.380617     0.533139
H     -1.071037     1.042471    -0.431221
H     -1.627574    -0.633688    -0.378810
H     -1.135093     0.183007     1.115643
H      0.747834    -0.474761    -1.210050
H      0.623943    -1.417636     0.268884
H      1.414320     1.260970     0.190755
9
Iteration 0, Energy=-153.9921973155, |grad|=0.979002
C     -0.978682    -0.045868     0.075761
C      0.573828    -0.278839    -0.220622
O      1.316298     0.330709     0.675655
H     -1.360234     0.705372    -0.655032
H     -1.556888    -0.777966     0.030468
H     -1.076168     0.579887     1.100258
H      0.763300    -0.190235    -1.176402
H      0.624917    -1.473649    -0.140771
H      1.735826     0.967433     0.415668
9
Iteration -1, Energy=-154.0926397579, |grad|=0.002976
C     -0.914327     0.073386     0.052252
C      0.511916    -0.414366    -0.140592
O      1.450018     0.380617     0.533139
H     -1.071037     1.042471    -0.431221
H     -1.627574    -0.633688    -0.378810
H     -1.135093     0.183007     1.115643
H      0.747834    -0.474761    -1.210050
H      0.623943    -1.417636     0.268884
H      1.414320     1.260970     0.190755
9
Iteration 0, Energy=-154.0926414538, |grad|=0.002635
C     -0.914252     0.072599     0.052392
C      0.511719    -0.413790    -0.140824
O      1.450130     0.380486     0.533096
H     -1.070895     1.042713    -0.430970
H     -1.627547    -0.633394    -0.379228
H     -1.135214     0.182933     1.115776
H      0.747868    -0.474951    -1.209822
H      0.623850    -1.417953     0.269156
H      1.414341     1.261359     0.190422
9
Iteration 1, Energy=-154.0926426553, |grad|=0.001947
C     -0.914268     0.072581     0.052432
C      0.511723    -0.413920    -0.140732
O      1.450151     0.380727     0.532937
H     -1.070792     1.042676    -0.430713
H     -1.627583    -0.633308    -0.379528
H     -1.135282     0.182834     1.115836
H      0.747894    -0.475043    -1.209770
H      0.623772    -1.417914     0.269214
H      1.414386     1.261366     0.190324
9
Iteration 2, Energy=-154.0926478893, |grad|=0.002654
C     -0.914395     0.072158     0.052803
C      0.511751    -0.414444    -0.140193
O      1.450316     0.381946     0.531893
H     -1.069942     1.042550    -0.428667
H     -1.627823    -0.632512    -0.381938
H     -1.135869     0.181973     1.116301
H      0.748069    -0.475855    -1.209269
H      0.623218    -1.417798     0.269849
H      1.414675     1.261982     0.189222
9
Iteration 3, Energy=-154.0926522130, |grad|=0.003308
C     -0.914579     0.071666     0.053252
C      0.511812    -0.414707    -0.139702
O      1.450479     0.382973     0.530864
H     -1.068883     1.042664    -0.426227
H     -1.627997    -0.631455    -0.384739
H     -1.136670     0.180645     1.116765
H      0.748184    -0.476938    -1.208671
H      0.622748    -1.417754     0.270841
H      1.414906     1.262906     0.187616
9
Iteration 4, Energy=-154.0926620125, |grad|=0.005581
C     -0.914715     0.070491     0.053999
C      0.511612    -0.414963    -0.138622
O      1.450802     0.385778     0.528700
H     -1.066230     1.044573    -0.420370
H     -1.627839    -0.628350    -0.391079
H     -1.139226     0.175814     1.117651
H      0.748022    -0.480045    -1.207473
H      0.622524    -1.417380     0.274103
H      1.415050     1.264080     0.183091
9
Iteration 0, Energy=-154.0445534929, |grad|=0.466181
C     -0.989549     0.012477     0.103309
C      0.437927    -0.366904    -0.134035
O      1.314405     0.404893     0.787154
H     -1.300200     0.645845    -0.770409
H     -1.636704    -0.831820     0.113375
H     -1.039849     0.679573     1.100875
H      0.880774    -0.094526    -1.263808
H      0.587956    -1.337157    -0.079633
H      1.837153     1.019647     0.373746
9
Iteration -1, Energy=-154.0926620125, |grad|=0.005581
C     -0.914715     0.070491     0.053999
C      0.511612    -0.414963    -0.138622
O      1.450802     0.385778     0.528700
H     -1.066230     1.044573    -0.420370
H     -1.627839    -0.628350    -0.391079
H     -1.139226     0.175814     1.117651
H      0.748022    -0.480045    -1.207473
H      0.622524    -1.417380     0.274103
H      1.415050     1.264080     0.183091
9
Iteration 0, Energy=-154.0926658256, |grad|=0.004397
C     -0.914712     0.070827     0.053990
C      0.511854    -0.414506    -0.138819
O      1.450589     0.384435     0.529200
H     -1.066196     1.044962    -0.420391
H     -1.627690    -0.628265    -0.390878
H     -1.139397     0.175267     1.117439
H      0.747823    -0.480184    -1.207429
H      0.622903    -1.417352     0.274452
H      1.414826     1.264816     0.182437
9
Iteration 1, Energy=-154.0926681228, |grad|=0.002578
C     -0.914673     0.070949     0.053931
C      0.511816    -0.414607    -0.138801
O      1.450569     0.384768     0.529145
H     -1.066192     1.045143    -0.420387
H     -1.627620    -0.628218    -0.390807
H     -1.139476     0.175036     1.117388
H      0.747760    -0.480230    -1.207469
H      0.623027    -1.417255     0.274536
H      1.414789     1.264413     0.182464
9
Iteration 2, Energy=-154.0926716112, |grad|=0.002063
C     -0.914538     0.071436     0.053726
C      0.511794    -0.414693    -0.138786
O      1.450411     0.385049     0.529233
H     -1.066154     1.045906    -0.420359
H     -1.627330    -0.628009    -0.390521
H     -1.139814     0.174054     1.117149
H      0.747478    -0.480447    -1.207586
H      0.623583    -1.416930     0.274969
H      1.414570     1.263634     0.182174
9
Iteration 3, Energy=-154.0926743616, |grad|=0.002103
C     -0.914341     0.072038     0.053449
C      0.511779    -0.414707    -0.138723
O      1.450178     0.385000     0.529464
H     -1.066062     1.047025    -0.420224
H     -1.626928    -0.627661    -0.390234
H     -1.140328     0.172605     1.116834
H      0.747086    -0.480798    -1.207726
H      0.624370    -1.416477     0.275651
H      1.414246     1.262975     0.181511
9
Iteration 4, Energy=-154.0926774311, |grad|=0.001641
C     -0.914243     0.072382     0.053409
C      0.511801    -0.414699    -0.138619
O      1.450036     0.385118     0.529402
H     -1.065645     1.048152    -0.419248
H     -1.626643    -0.626997    -0.390966
H     -1.141080     0.170785     1.116635
H      0.746744    -0.481430    -1.207544
H      0.624972    -1.416089     0.276716
H      1.414057     1.262778     0.180214
9
Iteration 0, Energy=-154.0201471149, |grad|=0.599886
C     -0.999070     0.138258     0.141932
C      0.564226    -0.280013    -0.103977
O      1.273132     0.333131     0.792025
H     -1.299767     0.723110    -0.647066
H     -1.570994    -0.937225    -0.042101
H     -1.106099     0.571093     1.054517
H      0.714569    -0.062395    -1.262123
H      0.626789    -1.509394    -0.082967
H      1.857659     1.096415     0.367320
9
Iteration -1, Energy=-154.0926774311, |grad|=0.001641
C     -0.914243     0.072382     0.053409
C      0.511801    -0.414699    -0.138619
O      1.450036     0.385118     0.529402
H     -1.065645     1.048152    -0.419248
H     -1.626643    -0.626997    -0.390966
H     -1.141080     0.170785     1.116635
H      0.746744    -0.481430    -1.207544
H      0.624972    -1.416089     0.276716
H      1.414057     1.262778     0.180214
9
Iteration 0, Energy=-154.0926777891, |grad|=0.003150
C     -0.914293     0.072136     0.053346
C      0.511815    -0.414607    -0.138292
O      1.450042     0.384725     0.529335
H     -1.065468     1.048123    -0.418773
H     -1.626673    -0.626769    -0.391498
H     -1.141219     0.170618     1.116824
H      0.746816    -0.481599    -1.207528
H      0.624853    -1.416089     0.276875
H      1.414127     1.263462     0.179711
9
Iteration 1, Energy=-154.0926787700, |grad|=0.001641
C     -0.914298     0.072136     0.053408
C      0.511797    -0.414668    -0.138343
O      1.450069     0.385024     0.529240
H     -1.065436     1.048130    -0.418694
H     -1.626685    -0.626744    -0.391602
H     -1.141247     0.170569     1.116815
H      0.746816    -0.481629    -1.207477
H      0.624831    -1.416092     0.276909
H      1.414154     1.263275     0.179743
9
Iteration 2, Energy=-154.0926801520, |grad|=0.001162
C     -0.914347     0.071982     0.053558
C      0.511773    -0.414752    -0.138292
O      1.450140     0.385522     0.528952
H     -1.065219     1.048146    -0.418135
H     -1.626738    -0.626513    -0.392266
H     -1.141432     0.170288     1.116906
H      0.746852    -0.481841    -1.207304
H      0.624701    -1.416101     0.277139
H      1.414269     1.263269     0.179442
9
Iteration 3, Energy=-154.0926825009, |grad|=0.002404
C     -0.914481     0.071550     0.053898
C      0.511747    -0.414879    -0.138059
O      1.450290     0.386437     0.528281
H     -1.064605     1.048236    -0.416563
H     -1.626856    -0.625835    -0.394098
H     -1.141977     0.169441     1.117183
H      0.746943    -0.482458    -1.206864
H      0.624384    -1.416108     0.277815
H      1.414555     1.263616     0.178406
9
Iteration 4, Energy=-154.0926855969, |grad|=0.003052
C     -0.914652     0.071000     0.054338
C      0.511747    -0.415006    -0.137642
O      1.450430     0.387541     0.527370
H     -1.063610     1.048625    -0.414046
H     -1.626937    -0.624672    -0.396914
H     -1.142969     0.167767     1.117577
H      0.746997    -0.483531    -1.206211
H      0.624068    -1.416015     0.279032
H      1.414926     1.264292     0.176496
9
Iteration 0, Energy=-154.0041562233, |grad|=0.775976
C     -1.019870    -0.042852    -0.051909
C      0.539635    -0.284741    -0.237554
O      1.245424     0.337875     0.642382
H     -1.445087     0.817142    -0.684491
H     -1.527723    -0.806812     0.108522
H     -0.993088     0.545885     1.037308
H      0.738747    -0.059808    -1.318679
H      0.618485    -1.505907     0.011688
H      1.875441     1.098563     0.308952
9
Iteration -1, Energy=-154.0926855969, |grad|=0.003052
C     -0.914652     0.071000     0.054338
C      0.511747    -0.415006    -0.137642
O      1.450430     0.387541     0.527370
H     -1.063610     1.048625    -0.414046
H     -1.626937    -0.624672    -0.396914
H     -1.142969     0.167767     1.117577
H      0.746997    -0.483531    -1.206211
H      0.624068    -1.416015     0.279032
H      1.414926     1.264292     0.176496
9
Iteration 0, Energy=-154.0926866069, |grad|=0.003149
C     -0.914605     0.071118     0.054151
C      0.511816    -0.414811    -0.137476
O      1.450283     0.386699     0.527655
H     -1.063582     1.048927    -0.414006
H     -1.626796    -0.624543    -0.396799
H     -1.143128     0.167364     1.117552
H      0.746898    -0.483654    -1.206313
H      0.624306    -1.415890     0.279217
H      1.414807     1.264791     0.176020
9
Iteration 1, Energy=-154.0926876527, |grad|=0.001615
C     -0.914587     0.071176     0.054159
C      0.511788    -0.414882    -0.137504
O      1.450285     0.386992     0.527592
H     -1.063572     1.049009    -0.413988
H     -1.626769    -0.624521    -0.396793
H     -1.143171     0.167250     1.117518
H      0.746870    -0.483683    -1.206308
H      0.624352    -1.415851     0.279258
H      1.414805     1.264510     0.176066
9
Iteration 2, Energy=-154.0926887543, |grad|=0.001257
C     -0.914525     0.071368     0.054107
C      0.511766    -0.414925    -0.137504
O      1.450215     0.387197     0.527603
H     -1.063529     1.049354    -0.413908
H     -1.626640    -0.624399    -0.396747
H     -1.143356     0.166771     1.117421
H      0.746751    -0.483821    -1.206330
H      0.624578    -1.415708     0.279464
H      1.414740     1.264162     0.175896
9
Iteration 3, Energy=-154.0926902696, |grad|=0.001702
C     -0.914395     0.071789     0.053980
C      0.511754    -0.414937    -0.137478
O      1.450032     0.387334     0.527711
H     -1.063402     1.050166    -0.413663
H     -1.626342    -0.624085    -0.396704
H     -1.143808     0.165619     1.117207
H      0.746475    -0.484168    -1.206366
H      0.625109    -1.415385     0.279988
H      1.414578     1.263666     0.175323
9
Iteration 4, Energy=-154.0926917982, |grad|=0.001554
C     -0.914316     0.072106     0.053904
C      0.511759    -0.414925    -0.137364
O      1.449876     0.387442     0.527733
H     -1.063134     1.051011    -0.413032
H     -1.626077    -0.623617    -0.397095
H     -1.144389     0.164254     1.117056
H      0.746216    -0.484646    -1.206297
H      0.625582    -1.415067     0.280694
H      1.414482     1.263441     0.174401
9
Iteration 0, Energy=-154.0584241524, |grad|=0.454457
C     -0.965040     0.105474     0.059883
C      0.564961    -0.330706    -0.157729
O      1.292486     0.378128     0.827483
H     -1.331692     0.760380    -0.662710
H     -1.545509    -0.846237     0.120218
H     -0.989393     0.530890     0.957988
H      0.867746    -0.155064    -1.166030
H      0.683257    -1.389400    -0.069938
H      1.774876     0.961984     0.409683
9
Iteration -1, Energy=-154.0926917982, |grad|=0.001554
C     -0.914316     0.072106     0.053904
C      0.511759    -0.414925    -0.137364
O      1.449876     0.387442     0.527733
H     -1.063134     1.051011    -0.413032
H     -1.626077    -0.623617    -0.397095
H     -1.144389     0.164254     1.117056
H      0.746216    -0.484646    -1.206297
H      0.625582    -1.415067     0.280694
H      1.414482     1.263441     0.174401
9
Iteration 0, Energy=-154.0926922589, |grad|=0.001336
C     -0.914345     0.072010     0.053918
C      0.511786    -0.414855    -0.137293
O      1.449879     0.387212     0.527735
H     -1.063067     1.050988    -0.412847
H     -1.626104    -0.623544    -0.397316
H     -1.144435     0.164205     1.117111
H      0.746241    -0.484700    -1.206252
H      0.625531    -1.415090     0.280767
H      1.414515     1.263774     0.174177
9
Iteration 1, Energy=-154.0926939009, |grad|=0.001029
C     -0.914458     0.071657     0.054067
C      0.511768    -0.414919    -0.137073
O      1.449995     0.387644     0.527332
H     -1.062752     1.050911    -0.411952
H     -1.626230    -0.623209    -0.398392
H     -1.144678     0.163909     1.117321
H      0.746347    -0.484957    -1.206003
H      0.625263    -1.415132     0.281081
H      1.414745     1.264099     0.173619
9
Iteration 2, Energy=-154.0926971983, |grad|=0.002832
C     -0.914768     0.070935     0.054994
C      0.511797    -0.415011    -0.136892
O      1.450243     0.389191     0.526180
H     -1.061449     1.051361    -0.408445
H     -1.626428    -0.621711    -0.402383
H     -1.146041     0.161642     1.117666
H      0.746413    -0.486302    -1.204849
H      0.624803    -1.415098     0.282844
H      1.415430     1.264992     0.170884
9
Iteration 3, Energy=-154.0927004882, |grad|=0.002403
C     -0.914970     0.070190     0.055001
C      0.511690    -0.415291    -0.135574
O      1.450289     0.390713     0.524903
H     -1.060118     1.052205    -0.404771
H     -1.626322    -0.619873    -0.406180
H     -1.147686     0.158825     1.118359
H      0.746453    -0.487817    -1.204277
H      0.624587    -1.414635     0.284662
H      1.416077     1.265681     0.167877
9
Iteration 4, Energy=-154.0927043678, |grad|=0.002336
C     -0.914990     0.070093     0.055193
C      0.511665    -0.415309    -0.135073
O      1.450152     0.391625     0.524323
H     -1.059184     1.053404    -0.402314
H     -1.626023    -0.618487    -0.408537
H     -1.149096     0.156102     1.118482
H      0.746229    -0.489079    -1.203802
H      0.624894    -1.414179     0.286278
H      1.416353     1.265830     0.165451
9
Iteration 0, Energy=-154.0256288014, |grad|=0.604876
C     -1.035320    -0.009278     0.049209
C      0.511006    -0.408697    -0.259217
O      1.273800     0.421426     0.761630
H     -1.396788     0.815490    -0.760529
H     -1.517463    -0.891758    -0.000407
H     -1.133845     0.557202     1.022130
H      0.781387    -0.058176    -1.137856
H      0.666907    -1.348659    -0.081190
H      1.889711     1.044816     0.487395
9
Iteration -1, Energy=-154.0927043678, |grad|=0.002336
C     -0.914990     0.070093     0.055193
C      0.511665    -0.415309    -0.135073
O      1.450152     0.391625     0.524323
H     -1.059184     1.053404    -0.402314
H     -1.626023    -0.618487    -0.408537
H     -1.149096     0.156102     1.118482
H      0.746229    -0.489079    -1.203802
H      0.624894    -1.414179     0.286278
H      1.416353     1.265830     0.165451
9
Iteration 0, Energy=-154.0927063640, |grad|=0.002625
C     -0.914894     0.070586     0.055368
C      0.511765    -0.415108    -0.135516
O      1.449977     0.391146     0.524744
H     -1.059206     1.053961    -0.402473
H     -1.625828    -0.618456    -0.408179
H     -1.149306     0.155418     1.118091
H      0.745972    -0.489233    -1.203699
H      0.625361    -1.414054     0.286586
H      1.416159     1.265740     0.165079
9
Iteration 1, Energy=-154.0927081305, |grad|=0.001587
C     -0.914784     0.070959     0.055202
C      0.511744    -0.415140    -0.135505
O      1.449827     0.391209     0.524897
H     -1.059233     1.054476    -0.402568
H     -1.625599    -0.618357    -0.407827
H     -1.149527     0.154784     1.117907
H      0.745779    -0.489368    -1.203803
H      0.625763    -1.413817     0.286787
H      1.416029     1.265253     0.164910
9
Iteration 2, Energy=-154.0927089384, |grad|=0.001589
C     -0.914596     0.071390     0.054658
C      0.511674    -0.415116    -0.135067
O      1.449548     0.391005     0.525143
H     -1.059243     1.055400    -0.402580
H     -1.625185    -0.618075    -0.407346
H     -1.149964     0.153648     1.117773
H      0.745499    -0.489634    -1.204129
H      0.626424    -1.413373     0.287157
H      1.415844     1.264757     0.164390
9
Iteration 3, Energy=-154.0927093526, |grad|=0.000766
C     -0.914617     0.071435     0.054847
C      0.511685    -0.415151    -0.135254
O      1.449585     0.391291     0.525079
H     -1.059200     1.055439    -0.402459
H     -1.625222    -0.618065    -0.407519
H     -1.150013     0.153536     1.117692
H      0.745476    -0.489674    -1.203987
H      0.626418    -1.413399     0.287255
H      1.415886     1.264588     0.164347
9
Iteration 4, Energy=-154.0927094866, |grad|=0.000663
C     -0.914643     0.071392     0.054878
C      0.511693    -0.415157    -0.135246
O      1.449606     0.391318     0.525041
H     -1.059168     1.055402    -0.402354
H     -1.625251    -0.618041    -0.407656
H     -1.150030     0.153531     1.117716
H      0.745494    -0.489687    -1.203943
H      0.626372    -1.413415     0.287285
H      1.415926     1.264657     0.164280
9
Iteration 0, Energy=-153.9576896114, |grad|=0.972355
C     -0.864563     0.072927    -0.026642
C      0.388148    -0.225665    -0.092641
O      1.196595     0.238366     0.789799
H     -1.306603     0.769573    -0.661647
H     -1.668956    -0.821811    -0.077747
H     -1.044723     0.672685     1.104813
H      0.728598    -0.111255    -1.235318
H      0.654485    -1.395284     0.015292
H      1.868677     0.953192     0.322909
9
Iteration -1, Energy=-154.0927094866, |grad|=0.000663
C     -0.914643     0.071392     0.054878
C      0.511693    -0.415157    -0.135246
O      1.449606     0.391318     0.525041
H     -1.059168     1.055402    -0.402354
H     -1.625251    -0.618041    -0.407656
H     -1.150030     0.153531     1.117716
H      0.745494    -0.489687    -1.203943
H      0.626372    -1.413415     0.287285
H      1.415926     1.264657     0.164280
9
Iteration 0, Energy=-154.0927095840, |grad|=0.001483
C     -0.914681     0.071293     0.054827
C      0.511703    -0.415116    -0.135093
O      1.449603     0.391161     0.525017
H     -1.059089     1.055415    -0.402085
H     -1.625254    -0.617920    -0.407932
H     -1.150133     0.153387     1.117799
H      0.745516    -0.489760    -1.203911
H      0.626337    -1.413397     0.287400
H      1.415998     1.264937     0.163977
9
Iteration 0, Energy=-154.0421530087, |grad|=0.550753
C     -0.947767     0.105671     0.013588
C      0.563546    -0.324145    -0.150999
O      1.344764     0.286225     0.735228
H     -1.356441     0.641301    -0.658568
H     -1.508984    -0.959264    -0.068463
H     -0.980822     0.501111     0.949824
H      0.786645    -0.125911    -1.168154
H      0.686388    -1.387686    -0.104934
H      1.762860     1.110707     0.449258
9
Iteration -1, Energy=-154.0927095840, |grad|=0.001483
C     -0.914681     0.071293     0.054827
C      0.511703    -0.415116    -0.135093
O      1.449603     0.391161     0.525017
H     -1.059089     1.055415    -0.402085
H     -1.625254    -0.617920    -0.407932
H     -1.150133     0.153387     1.117799
H      0.745516    -0.489760    -1.203911
H      0.626337    -1.413397     0.287400
H      1.415998     1.264937     0.163977
9
Iteration 0, Energy=-154.0927098550, |grad|=0.000549
C     -0.914681     0.071300     0.054890
C      0.511684    -0.415166    -0.135143
O      1.449623     0.391421     0.524941
H     -1.059073     1.055432    -0.402034
H     -1.625263    -0.617907    -0.408001
H     -1.150157     0.153341     1.117776
H      0.745513    -0.489777    -1.203870
H      0.626328    -1.413395     0.287429
H      1.416026     1.264751     0.164012
9
Iteration 0, Energy=-154.0468348866, |grad|=0.394788
C     -1.033540     0.112580     0.086737
C      0.406288    -0.242463    -0.278574
O      1.359224     0.330387     0.784280
H     -1.325123     0.833011    -0.640226
H     -1.501134    -0.797504     0.090451
H     -0.989195     0.595230     1.103612
H      0.798034    -0.141129    -1.250941
H      0.496812    -1.460965    -0.134381
H      1.890438     0.960251     0.392900
9
Iteration -1, Energy=-154.0927098550, |grad|=0.000549
C     -0.914681     0.071300     0.054890
C      0.511684    -0.415166    -0.135143
O      1.449623     0.391421     0.524941
H     -1.059073     1.055432    -0.402034
H     -1.625263    -0.617907    -0.408001
H     -1.150157     0.153341     1.117776
H      0.745513    -0.489777    -1.203870
H      0.626328    -1.413395     0.287429
H      1.416026     1.264751     0.164012
9
Iteration 0, Energy=-154.0927100404, |grad|=0.001593
C     -0.914715     0.071242     0.054988
C      0.511717    -0.415092    -0.135116
O      1.449607     0.391318     0.524928
H     -1.058952     1.055529    -0.401655
H     -1.625267    -0.617742    -0.408409
H     -1.150341     0.153026     1.117785
H      0.745504    -0.489917    -1.203742
H      0.626325    -1.413378     0.287658
H      1.416123     1.265013     0.163563
9
Iteration 0, Energy=-154.0206905086, |grad|=0.634308
C     -0.960997     0.123660     0.111430
C      0.569860    -0.226448    -0.245290
O      1.351226     0.347875     0.787903
H     -1.409402     0.683598    -0.642009
H     -1.607645    -0.949697     0.100298
H     -1.022594     0.561337     0.938499
H      0.693510    -0.096287    -1.283906
H      0.498361    -1.427514    -0.056191
H      1.888276     0.980532     0.377408
9
Iteration -1, Energy=-154.0927100404, |grad|=0.001593
C     -0.914715     0.071242     0.054988
C      0.511717    -0.415092    -0.135116
O      1.449607     0.391318     0.524928
H     -1.058952     1.055529    -0.401655
H     -1.625267    -0.617742    -0.408409
H     -1.150341     0.153026     1.117785
H      0.745504    -0.489917    -1.203742
H      0.626325    -1.413378     0.287658
H      1.416123     1.265013     0.163563
9
Iteration 0, Energy=-154.0927103362, |grad|=0.000491
C     -0.914714     0.071240     0.054960
C      0.511687    -0.415159    -0.135074
O      1.449619     0.391550     0.524848
H     -1.058942     1.055543    -0.401609
H     -1.625258    -0.617716    -0.408445
H     -1.150366     0.152984     1.117805
H      0.745506    -0.489930    -1.203751
H      0.626320    -1.413352     0.287667
H      1.416147     1.264839     0.163601
9
Iteration 0, Energy=-154.0132496047, |grad|=0.637914
C     -0.864552     0.108018     0.060165
C      0.413419    -0.278723    -0.241539
O      1.186613     0.298385     0.657121
H     -1.284522     0.793781    -0.727628
H     -1.597439    -0.957367     0.038439
H     -1.038970     0.539403     1.030835
H      0.737350    -0.203036    -1.256394
H      0.600824    -1.351837     0.016587
H      1.904168     1.000667     0.296514
