9
Iteration -1, Energy=-154.0837996503, |grad|=0.044117
C     -0.977020     0.054531     0.039344
C      0.487693    -0.332548    -0.192952
O      1.302254     0.336299     0.743792
H     -1.353582     0.729531    -0.729129
H     -1.591671    -0.850511     0.025441
H     -1.069217     0.581118     0.999619
H      0.788253    -0.138478    -1.230198
H      0.594696    -1.412625    -0.042175
H      1.818594     1.032682     0.386258
9
Iteration 0, Energy=-154.0843833249, |grad|=0.059413
C     -0.977280     0.053879     0.035312
C      0.484312    -0.325026    -0.187773
O      1.305233     0.320355     0.751886
H     -1.354690     0.731318    -0.731808
H     -1.597106    -0.844075     0.028915
H     -1.069673     0.569254     0.994917
H      0.790027    -0.136048    -1.225589
H      0.600639    -1.406722    -0.038040
H      1.818537     1.037066     0.372179
9
Iteration 1, Energy=-154.0849708820, |grad|=0.035094
C     -0.978177     0.054365     0.032267
C      0.483032    -0.324225    -0.185418
O      1.313796     0.319380     0.752837
H     -1.355398     0.732475    -0.733440
H     -1.600947    -0.840538     0.030813
H     -1.070298     0.562238     0.992956
H      0.791269    -0.133974    -1.221992
H      0.603824    -1.402234    -0.035695
H      1.812900     1.032512     0.367673
9
Iteration 2, Energy=-154.0855525641, |grad|=0.015882
C     -0.980572     0.055962     0.025149
C      0.485382    -0.322798    -0.179253
O      1.331056     0.312521     0.753421
H     -1.357325     0.736354    -0.738314
H     -1.612045    -0.832437     0.034509
H     -1.072982     0.545639     0.990668
H      0.794820    -0.127776    -1.211446
H      0.611494    -1.392164    -0.028851
H      1.800172     1.024698     0.354117
9
Iteration 3, Energy=-154.0857041185, |grad|=0.012918
C     -0.979866     0.055951     0.024226
C      0.487718    -0.323802    -0.177507
O      1.336536     0.309057     0.751367
H     -1.357812     0.739262    -0.740843
H     -1.617745    -0.830150     0.033355
H     -1.075975     0.541528     0.993742
H      0.798074    -0.123818    -1.206927
H      0.613990    -1.392890    -0.024920
H      1.795081     1.024862     0.347508
9
Iteration 4, Energy=-154.0858879114, |grad|=0.019755
C     -0.984349     0.059975     0.025899
C      0.492191    -0.332712    -0.172545
O      1.350274     0.301923     0.745186
H     -1.353411     0.743306    -0.740109
H     -1.629306    -0.822421     0.024813
H     -1.085134     0.532524     1.000771
H      0.809041    -0.114233    -1.198539
H      0.618760    -1.399964    -0.015309
H      1.781934     1.031603     0.329834
9
Iteration 0, Energy=-154.0038802321, |grad|=0.866488
C     -1.030798     0.017194    -0.033921
C      0.543264    -0.297346    -0.221354
O      1.185952     0.277830     0.639177
H     -1.279173     0.667624    -0.670826
H     -1.633544    -0.897556    -0.016649
H     -1.076285     0.580001     1.050350
H      0.693213    -0.156023    -1.332955
H      0.684758    -1.347364    -0.026393
H      1.836310     1.033201     0.462806
9
Iteration -1, Energy=-154.0858879114, |grad|=0.019755
C     -0.984349     0.059975     0.025899
C      0.492191    -0.332712    -0.172545
O      1.350274     0.301923     0.745186
H     -1.353411     0.743306    -0.740109
H     -1.629306    -0.822421     0.024813
H     -1.085134     0.532524     1.000771
H      0.809041    -0.114233    -1.198539
H      0.618760    -1.399964    -0.015309
H      1.781934     1.031603     0.329834
9
Iteration 0, Energy=-154.0859565451, |grad|=0.009760
C     -0.981954     0.057697     0.026682
C      0.490914    -0.330743    -0.173223
O      1.350611     0.302731     0.744626
H     -1.352888     0.744321    -0.739948
H     -1.629267    -0.822193     0.023716
H     -1.085654     0.533271     1.001545
H      0.808783    -0.115457    -1.198207
H      0.618427    -1.401522    -0.015309
H      1.781028     1.031895     0.330117
9
Iteration 1, Energy=-154.0859975546, |grad|=0.009758
C     -0.979824     0.056415     0.027604
C      0.490388    -0.330369    -0.173284
O      1.350379     0.303304     0.743840
H     -1.351326     0.745188    -0.738538
H     -1.629111    -0.822165     0.021705
H     -1.086398     0.534042     1.002367
H      0.808331    -0.117405    -1.198184
H      0.617654    -1.402515    -0.015595
H      1.779906     1.033506     0.330084
9
Iteration 2, Energy=-154.0860846868, |grad|=0.014129
C     -0.976153     0.054511     0.030372
C      0.490270    -0.331176    -0.173151
O      1.350274     0.305554     0.741346
H     -1.345762     0.747466    -0.733449
H     -1.628222    -0.821957     0.015372
H     -1.088386     0.535496     1.004344
H      0.806840    -0.123462    -1.198516
H      0.615292    -1.404803    -0.016344
H      1.775846     1.038371     0.330025
9
Iteration 3, Energy=-154.0861938558, |grad|=0.019303
C     -0.972940     0.053201     0.034639
C      0.490891    -0.333048    -0.171924
O      1.350322     0.306741     0.738365
H     -1.335240     0.752593    -0.724820
H     -1.626393    -0.821279     0.004225
H     -1.091206     0.535669     1.007862
H      0.804117    -0.134328    -1.200232
H      0.612077    -1.408864    -0.016150
H      1.768372     1.049314     0.328034
9
Iteration 4, Energy=-154.0863281009, |grad|=0.019805
C     -0.969211     0.053445     0.040207
C      0.491693    -0.339449    -0.169597
O      1.355035     0.312665     0.731446
H     -1.317962     0.762525    -0.711517
H     -1.623841    -0.820179    -0.013760
H     -1.095249     0.533216     1.014150
H      0.799524    -0.151887    -1.203281
H      0.607655    -1.413863    -0.014183
H      1.752356     1.063527     0.326535
9
Iteration 0, Energy=-154.0700704055, |grad|=0.256955
C     -0.983302     0.069239     0.030905
C      0.562854    -0.329484    -0.186316
O      1.364231     0.307988     0.731795
H     -1.432359     0.703627    -0.809266
H     -1.689019    -0.813305    -0.046614
H     -1.083395     0.524011     1.019905
H      0.884244    -0.077374    -1.273304
H      0.678663    -1.333395    -0.012462
H      1.746510     1.087051     0.296183
9
Iteration -1, Energy=-154.0863281009, |grad|=0.019805
C     -0.969211     0.053445     0.040207
C      0.491693    -0.339449    -0.169597
O      1.355035     0.312665     0.731446
H     -1.317962     0.762525    -0.711517
H     -1.623841    -0.820179    -0.013760
H     -1.095249     0.533216     1.014150
H      0.799524    -0.151887    -1.203281
H      0.607655    -1.413863    -0.014183
H      1.752356     1.063527     0.326535
9
Iteration 0, Energy=-154.0864181960, |grad|=0.026360
C     -0.973739     0.056865     0.038188
C      0.494543    -0.340611    -0.168995
O      1.355158     0.306477     0.732479
H     -1.317796     0.765164    -0.713003
H     -1.624087    -0.818925    -0.013094
H     -1.093940     0.527729     1.014485
H      0.798953    -0.151692    -1.203085
H      0.609709    -1.412197    -0.010183
H      1.751199     1.067189     0.323207
9
Iteration 1, Energy=-154.0865155175, |grad|=0.015555
C     -0.973881     0.057293     0.037266
C      0.493912    -0.340773    -0.168957
O      1.357492     0.307167     0.731519
H     -1.317993     0.766916    -0.714035
H     -1.624502    -0.818362    -0.012978
H     -1.093511     0.525440     1.015058
H      0.798879    -0.151702    -1.203036
H      0.610589    -1.411990    -0.008274
H      1.749015     1.066010     0.323436
9
Iteration 2, Energy=-154.0866646141, |grad|=0.011495
C     -0.974536     0.059362     0.033651
C      0.492651    -0.340910    -0.168521
O      1.364038     0.305325     0.729015
H     -1.318572     0.773902    -0.717738
H     -1.626277    -0.815959    -0.012843
H     -1.091780     0.515979     1.017321
H      0.798483    -0.152027    -1.202738
H      0.614096    -1.411021    -0.000242
H      1.741897     1.065348     0.322096
9
Iteration 3, Energy=-154.0867353348, |grad|=0.010806
C     -0.973285     0.060468     0.031431
C      0.492074    -0.341193    -0.168263
O      1.367653     0.302363     0.726813
H     -1.318528     0.779122    -0.719068
H     -1.628001    -0.813683    -0.014200
H     -1.090764     0.508984     1.019219
H      0.798318    -0.153245    -1.202371
H      0.615989    -1.410325     0.006137
H      1.736543     1.067510     0.320302
9
Iteration 4, Energy=-154.0868700267, |grad|=0.014273
C     -0.972566     0.063465     0.028121
C      0.494287    -0.344635    -0.168175
O      1.375511     0.297910     0.719619
H     -1.315762     0.789286    -0.716611
H     -1.631209    -0.806684    -0.021327
H     -1.088682     0.493734     1.023014
H      0.798302    -0.158928    -1.201944
H      0.617708    -1.408978     0.020301
H      1.722409     1.074830     0.317002
9
Iteration 0, Energy=-154.0193211686, |grad|=0.556166
C     -0.856174    -0.038695     0.098191
C      0.497148    -0.338432    -0.134573
O      1.249016     0.322800     0.708485
H     -1.283229     0.803975    -0.764816
H     -1.530819    -0.927591    -0.032478
H     -1.059129     0.514945     1.110236
H      0.707952    -0.229778    -1.142056
H      0.559008    -1.347001    -0.067636
H      1.756035     0.947888     0.425274
9
Iteration -1, Energy=-154.0868700267, |grad|=0.014273
C     -0.972566     0.063465     0.028121
C      0.494287    -0.344635    -0.168175
O      1.375511     0.297910     0.719619
H     -1.315762     0.789286    -0.716611
H     -1.631209    -0.806684    -0.021327
H     -1.088682     0.493734     1.023014
H      0.798302    -0.158928    -1.201944
H      0.617708    -1.408978     0.020301
H      1.722409     1.074830     0.317002
9
Iteration 0, Energy=-154.0869499029, |grad|=0.023998
C     -0.968993     0.061177     0.031068
C      0.493342    -0.343214    -0.168027
O      1.373605     0.296820     0.719891
H     -1.313116     0.789536    -0.711749
H     -1.631514    -0.806235    -0.026696
H     -1.089309     0.495670     1.023827
H      0.799216    -0.163435    -1.203842
H      0.615076    -1.412188     0.019855
H      1.721693     1.081869     0.315673
9
Iteration 1, Energy=-154.0870470516, |grad|=0.014857
C     -0.968112     0.060579     0.032380
C      0.493525    -0.344457    -0.168165
O      1.374200     0.299612     0.718543
H     -1.311215     0.789670    -0.708464
H     -1.631466    -0.805879    -0.030021
H     -1.089599     0.496555     1.024486
H      0.799602    -0.166283    -1.204701
H      0.613318    -1.413178     0.019466
H      1.719746     1.083381     0.316477
9
Iteration 2, Energy=-154.0871875099, |grad|=0.010650
C     -0.966246     0.059010     0.036431
C      0.495713    -0.348312    -0.168611
O      1.374861     0.305733     0.714565
H     -1.304411     0.791170    -0.697606
H     -1.631097    -0.804536    -0.041338
H     -1.090355     0.498555     1.027139
H      0.800426    -0.176559    -1.207021
H      0.607806    -1.416164     0.018845
H      1.713302     1.091103     0.317597
9
Iteration 3, Energy=-154.0872659718, |grad|=0.012421
C     -0.965389     0.058629     0.037743
C      0.496659    -0.349725    -0.168514
O      1.375982     0.307265     0.711926
H     -1.300358     0.795071    -0.693142
H     -1.630832    -0.803715    -0.047396
H     -1.090306     0.497026     1.029523
H      0.800216    -0.183171    -1.207667
H      0.606159    -1.417517     0.020266
H      1.707869     1.096137     0.317261
9
Iteration 4, Energy=-154.0879345582, |grad|=0.032345
C     -0.954722     0.062880     0.046477
C      0.500140    -0.367773    -0.163690
O      1.393081     0.317854     0.683295
H     -1.255817     0.842707    -0.647501
H     -1.628484    -0.793125    -0.110495
H     -1.088388     0.468120     1.054424
H      0.796905    -0.253316    -1.216482
H      0.594281    -1.429024     0.043693
H      1.643003     1.151677     0.310279
9
Iteration 0, Energy=-154.0249508757, |grad|=0.537161
C     -0.967983     0.064917     0.124253
C      0.491292    -0.255202    -0.190500
O      1.275928     0.263068     0.638664
H     -1.300009     0.827963    -0.752402
H     -1.624703    -0.924069     0.004043
H     -1.068842     0.615699     1.102157
H      0.720828    -0.237687    -1.157734
H      0.681247    -1.419031    -0.112383
H      1.737232     0.986855     0.373889
9
Iteration -1, Energy=-154.0879345582, |grad|=0.032345
C     -0.954722     0.062880     0.046477
C      0.500140    -0.367773    -0.163690
O      1.393081     0.317854     0.683295
H     -1.255817     0.842707    -0.647501
H     -1.628484    -0.793125    -0.110495
H     -1.088388     0.468120     1.054424
H      0.796905    -0.253316    -1.216482
H      0.594281    -1.429024     0.043693
H      1.643003     1.151677     0.310279
9
Iteration 0, Energy=-154.0882287152, |grad|=0.026992
C     -0.955042     0.058919     0.044642
C      0.499888    -0.360733    -0.166618
O      1.394771     0.314746     0.681468
H     -1.256325     0.846982    -0.650912
H     -1.626830    -0.787294    -0.108110
H     -1.088065     0.461721     1.053907
H      0.794944    -0.252255    -1.213839
H      0.597679    -1.430832     0.050250
H      1.638980     1.148746     0.309212
9
Iteration 1, Energy=-154.0884518122, |grad|=0.021363
C     -0.954425     0.061247     0.041988
C      0.499606    -0.361499    -0.166045
O      1.396366     0.312239     0.679577
H     -1.256471     0.849500    -0.652612
H     -1.626912    -0.784205    -0.106511
H     -1.087699     0.455006     1.053214
H      0.793591    -0.250600    -1.213385
H      0.600617    -1.428630     0.055618
H      1.635327     1.146943     0.308156
9
Iteration 2, Energy=-154.0886885192, |grad|=0.037733
C     -0.949261     0.069988     0.034862
C      0.499791    -0.367100    -0.167530
O      1.405068     0.299324     0.676932
H     -1.255072     0.863129    -0.658373
H     -1.632055    -0.775026    -0.106852
H     -1.086270     0.429078     1.055204
H      0.788476    -0.247342    -1.214059
H      0.609943    -1.421958     0.079466
H      1.619380     1.149906     0.300350
9
Iteration 3, Energy=-154.0888259896, |grad|=0.025512
C     -0.950662     0.071295     0.032129
C      0.500717    -0.369413    -0.164719
O      1.409283     0.305612     0.670332
H     -1.253285     0.865990    -0.657554
H     -1.632507    -0.771148    -0.108567
H     -1.085546     0.422696     1.056323
H      0.787878    -0.247726    -1.215650
H      0.611295    -1.421020     0.085080
H      1.612826     1.143714     0.302626
9
Iteration 4, Energy=-154.0889089519, |grad|=0.010397
C     -0.951083     0.069786     0.034125
C      0.501060    -0.368089    -0.164991
O      1.407199     0.304803     0.671862
H     -1.252947     0.864174    -0.656014
H     -1.632240    -0.772877    -0.109783
H     -1.085762     0.426912     1.056371
H      0.788738    -0.249177    -1.215591
H      0.609459    -1.422589     0.081614
H      1.615575     1.147057     0.302407
9
Iteration 0, Energy=-154.0426076436, |grad|=0.364790
C     -1.024046     0.066824     0.059777
C      0.410040    -0.378623    -0.107741
O      1.318867     0.394640     0.670824
H     -1.292563     0.829585    -0.668004
H     -1.495533    -0.916438    -0.019466
H     -1.059257     0.588821     1.058098
H      0.718509    -0.104395    -1.290116
H      0.581453    -1.465358    -0.005429
H      1.925983     1.045554     0.476396
9
Iteration -1, Energy=-154.0889089519, |grad|=0.010397
C     -0.951083     0.069786     0.034125
C      0.501060    -0.368089    -0.164991
O      1.407199     0.304803     0.671862
H     -1.252947     0.864174    -0.656014
H     -1.632240    -0.772877    -0.109783
H     -1.085762     0.426912     1.056371
H      0.788738    -0.249177    -1.215591
H      0.609459    -1.422589     0.081614
H      1.615575     1.147057     0.302407
9
Iteration 0, Energy=-154.0889789616, |grad|=0.022953
C     -0.951175     0.067619     0.036628
C      0.501645    -0.366182    -0.164979
O      1.406460     0.303759     0.668775
H     -1.248757     0.865263    -0.650395
H     -1.632442    -0.770739    -0.116483
H     -1.085485     0.426264     1.057394
H      0.789216    -0.255176    -1.215097
H      0.607631    -1.425150     0.082848
H      1.612908     1.154341     0.301308
9
Iteration 1, Energy=-154.0890799686, |grad|=0.016298
C     -0.950622     0.066903     0.037904
C      0.501357    -0.367366    -0.164720
O      1.407400     0.306531     0.665806
H     -1.245694     0.866364    -0.646220
H     -1.632887    -0.769578    -0.121505
H     -1.085383     0.425494     1.058562
H      0.789533    -0.259518    -1.215138
H      0.606237    -1.425909     0.083631
H      1.610058     1.157079     0.301681
9
Iteration 2, Energy=-154.0893279354, |grad|=0.015040
C     -0.946837     0.064367     0.042812
C      0.500718    -0.374148    -0.163542
O      1.411823     0.316111     0.653885
H     -1.231153     0.874117    -0.627317
H     -1.635413    -0.764325    -0.145274
H     -1.085197     0.419944     1.065353
H      0.790083    -0.280588    -1.215930
H      0.600491    -1.428371     0.088836
H      1.595486     1.172894     0.301179
9
Iteration 3, Energy=-154.0895194540, |grad|=0.020307
C     -0.944589     0.062727     0.044954
C      0.502229    -0.376885    -0.163430
O      1.416292     0.321893     0.645716
H     -1.220267     0.884667    -0.615524
H     -1.636463    -0.758938    -0.161663
H     -1.085310     0.411287     1.071139
H      0.788550    -0.296744    -1.217055
H      0.598500    -1.430909     0.096498
H      1.581058     1.182902     0.299365
9
Iteration 4, Energy=-154.0902686462, |grad|=0.035122
C     -0.930943     0.062666     0.052642
C      0.510630    -0.396736    -0.158150
O      1.440755     0.346467     0.600617
H     -1.159279     0.946921    -0.550861
H     -1.641367    -0.727735    -0.250054
H     -1.086309     0.353872     1.101761
H      0.778113    -0.385076    -1.225996
H      0.592104    -1.440291     0.144449
H      1.496295     1.239912     0.285592
9
Iteration 0, Energy=-154.0477841762, |grad|=0.431296
C     -0.898716     0.131171     0.025318
C      0.546828    -0.394312    -0.197511
O      1.338423     0.262749     0.707643
H     -1.267290     0.818934    -0.729054
H     -1.494630    -0.787151     0.096205
H     -1.077208     0.673748     1.032548
H      0.731808    -0.164766    -1.334190
H      0.491785    -1.388499    -0.058582
H      1.811039     1.147012     0.359521
9
Iteration -1, Energy=-154.0902686462, |grad|=0.035122
C     -0.930943     0.062666     0.052642
C      0.510630    -0.396736    -0.158150
O      1.440755     0.346467     0.600617
H     -1.159279     0.946921    -0.550861
H     -1.641367    -0.727735    -0.250054
H     -1.086309     0.353872     1.101761
H      0.778113    -0.385076    -1.225996
H      0.592104    -1.440291     0.144449
H      1.496295     1.239912     0.285592
9
Iteration 0, Energy=-154.0908939526, |grad|=0.027020
C     -0.933232     0.067181     0.047306
C      0.510518    -0.391851    -0.160443
O      1.436716     0.339868     0.595994
H     -1.158590     0.947621    -0.551236
H     -1.633798    -0.717626    -0.242212
H     -1.087198     0.341715     1.094880
H      0.774675    -0.381509    -1.221426
H      0.599723    -1.437524     0.153597
H      1.491186     1.232126     0.283540
9
Iteration 1, Energy=-154.0912333381, |grad|=0.015511
C     -0.926080     0.073231     0.043692
C      0.504732    -0.395801    -0.158627
O      1.435607     0.335098     0.593327
H     -1.159289     0.953370    -0.554476
H     -1.630182    -0.710925    -0.235930
H     -1.088985     0.327343     1.089327
H      0.771489    -0.376780    -1.221184
H      0.608039    -1.429416     0.163406
H      1.484668     1.223881     0.280465
9
Iteration 2, Energy=-154.0913111146, |grad|=0.016609
C     -0.924448     0.073822     0.041918
C      0.506836    -0.395474    -0.160338
O      1.437163     0.330947     0.595295
H     -1.158840     0.959375    -0.557004
H     -1.631017    -0.709660    -0.235817
H     -1.090097     0.321346     1.091473
H      0.769013    -0.375679    -1.222102
H      0.610782    -1.428523     0.169787
H      1.480608     1.223847     0.276789
9
Iteration 3, Energy=-154.0913631954, |grad|=0.007699
C     -0.925039     0.074586     0.041549
C      0.508577    -0.396338    -0.160122
O      1.438637     0.333040     0.595176
H     -1.157998     0.961579    -0.557243
H     -1.632048    -0.709726    -0.237197
H     -1.090348     0.319246     1.093022
H      0.768261    -0.375770    -1.223462
H      0.611109    -1.428654     0.172122
H      1.478849     1.222036     0.276156
9
Iteration 4, Energy=-154.0913906250, |grad|=0.007264
C     -0.925764     0.075410     0.041692
C      0.509873    -0.397021    -0.159112
O      1.439982     0.334168     0.594717
H     -1.156555     0.963415    -0.556566
H     -1.633097    -0.709472    -0.239492
H     -1.090497     0.316915     1.094215
H      0.767779    -0.376344    -1.224978
H      0.611281    -1.428923     0.174544
H      1.476999     1.221852     0.274979
9
Iteration 0, Energy=-154.0139018834, |grad|=0.632453
C     -0.998999    -0.024517     0.113923
C      0.579074    -0.420540    -0.177199
O      1.372095     0.335184     0.740977
H     -1.345972     0.767295    -0.832257
H     -1.665833    -0.937092     0.075042
H     -0.974538     0.687073     1.098738
H      0.688687    -0.106826    -1.228860
H      0.547948    -1.351376    -0.022343
H      1.829788     0.971713     0.352520
9
Iteration -1, Energy=-154.0913906250, |grad|=0.007264
C     -0.925764     0.075410     0.041692
C      0.509873    -0.397021    -0.159112
O      1.439982     0.334168     0.594717
H     -1.156555     0.963415    -0.556566
H     -1.633097    -0.709472    -0.239492
H     -1.090497     0.316915     1.094215
H      0.767779    -0.376344    -1.224978
H      0.611281    -1.428923     0.174544
H      1.476999     1.221852     0.274979
9
Iteration 0, Energy=-154.0914223721, |grad|=0.016537
C     -0.925512     0.074006     0.043306
C      0.507270    -0.396375    -0.158457
O      1.440202     0.333119     0.592075
H     -1.153180     0.963134    -0.551954
H     -1.632666    -0.706509    -0.244295
H     -1.090637     0.314645     1.093524
H      0.768164    -0.379115    -1.223442
H      0.610880    -1.429494     0.176399
H      1.475479     1.226588     0.272845
9
Iteration 1, Energy=-154.0914682519, |grad|=0.010123
C     -0.925383     0.073590     0.043722
C      0.506650    -0.397213    -0.158079
O      1.440525     0.335323     0.589904
H     -1.151270     0.963383    -0.549392
H     -1.632689    -0.705111    -0.247164
H     -1.090890     0.313242     1.093838
H      0.768125    -0.380740    -1.222661
H      0.610502    -1.429406     0.177405
H      1.474429     1.226931     0.272427
9
Iteration 2, Energy=-154.0915478200, |grad|=0.012005
C     -0.924740     0.072058     0.045060
C      0.505831    -0.399422    -0.156831
O      1.441327     0.340472     0.583282
H     -1.144579     0.965303    -0.540778
H     -1.633159    -0.700525    -0.257405
H     -1.092024     0.307969     1.095642
H      0.767594    -0.386736    -1.220223
H      0.609334    -1.429281     0.181429
H      1.470416     1.230162     0.269824
9
Iteration 3, Energy=-154.0916355192, |grad|=0.016723
C     -0.923616     0.070309     0.046588
C      0.506387    -0.401682    -0.155424
O      1.442517     0.345581     0.576380
H     -1.136330     0.969761    -0.530830
H     -1.634284    -0.695349    -0.270260
H     -1.093903     0.300493     1.098874
H      0.766289    -0.394699    -1.218190
H      0.608294    -1.429363     0.187317
H      1.464648     1.234948     0.265544
9
Iteration 4, Energy=-154.0918804800, |grad|=0.023599
C     -0.920526     0.066664     0.050879
C      0.508543    -0.407814    -0.150843
O      1.447672     0.360003     0.558048
H     -1.110604     0.987488    -0.500843
H     -1.637172    -0.678949    -0.309264
H     -1.100735     0.273690     1.108883
H      0.761173    -0.420669    -1.215171
H      0.607219    -1.430027     0.208118
H      1.444430     1.249615     0.250191
9
Iteration 0, Energy=-153.9995841646, |grad|=0.635203
C     -0.881517     0.144698     0.125442
C      0.414786    -0.340635    -0.101679
O      1.185459     0.390748     0.783099
H     -1.448637     0.684735    -0.755539
H     -1.679893    -0.938579    -0.053510
H     -1.164803     0.605918     0.933327
H      0.690553    -0.201354    -1.167818
H      0.675742    -1.332087    -0.082658
H      1.779853     1.062170     0.347686
9
Iteration -1, Energy=-154.0918804800, |grad|=0.023599
C     -0.920526     0.066664     0.050879
C      0.508543    -0.407814    -0.150843
O      1.447672     0.360003     0.558048
H     -1.110604     0.987488    -0.500843
H     -1.637172    -0.678949    -0.309264
H     -1.100735     0.273690     1.108883
H      0.761173    -0.420669    -1.215171
H      0.607219    -1.430027     0.208118
H      1.444430     1.249615     0.250191
9
Iteration 0, Energy=-154.0919655475, |grad|=0.018392
C     -0.920668     0.067471     0.050497
C      0.509466    -0.405858    -0.151157
O      1.447449     0.354767     0.560641
H     -1.110778     0.989854    -0.501539
H     -1.636345    -0.678328    -0.308027
H     -1.101478     0.271399     1.108441
H      0.760368    -0.421364    -1.216509
H      0.608922    -1.430272     0.209891
H      1.443064     1.252332     0.247761
9
Iteration 1, Energy=-154.0920162391, |grad|=0.012822
C     -0.920519     0.068365     0.050103
C      0.509630    -0.406128    -0.151242
O      1.447571     0.355560     0.561088
H     -1.110898     0.991192    -0.501804
H     -1.635899    -0.678034    -0.307374
H     -1.101975     0.269956     1.108252
H      0.759909    -0.421716    -1.217278
H      0.609825    -1.429933     0.210717
H      1.442357     1.250737     0.247537
9
Iteration 2, Energy=-154.0921305251, |grad|=0.006788
C     -0.919334     0.073102     0.047828
C      0.510904    -0.406817    -0.151620
O      1.447490     0.356195     0.563792
H     -1.111442     0.998607    -0.502908
H     -1.633454    -0.676234    -0.304077
H     -1.104811     0.261859     1.107288
H      0.757374    -0.423821    -1.220910
H      0.614910    -1.427953     0.215495
H      1.438363     1.245061     0.245113
9
Iteration 3, Energy=-154.0921535091, |grad|=0.004914
C     -0.918131     0.074295     0.047086
C      0.511057    -0.407189    -0.151788
O      1.446644     0.355414     0.563276
H     -1.111176     1.001420    -0.502027
H     -1.632466    -0.674906    -0.304091
H     -1.106052     0.258399     1.106929
H      0.756616    -0.425086    -1.220615
H      0.616687    -1.426657     0.217602
H      1.436820     1.244310     0.243629
9
Iteration 4, Energy=-154.0921869467, |grad|=0.005945
C     -0.917679     0.075444     0.046422
C      0.510520    -0.406914    -0.151401
O      1.446229     0.355150     0.561198
H     -1.109340     1.006018    -0.498128
H     -1.630605    -0.671454    -0.306701
H     -1.108044     0.251698     1.106258
H      0.755917    -0.428574    -1.220121
H      0.619193    -1.425472     0.222232
H      1.433809     1.244106     0.240242
9
Iteration 0, Energy=-154.0134562223, |grad|=0.585152
C     -0.914484    -0.033644    -0.051854
C      0.441566    -0.233735    -0.126048
O      1.270053     0.346495     0.723971
H     -1.280127     0.720059    -0.787118
H     -1.523191    -0.845943    -0.039280
H     -1.161895     0.624233     1.017059
H      0.754590    -0.191409    -1.150067
H      0.586941    -1.498747    -0.123578
H      1.903733     0.978272     0.464328
9
Iteration -1, Energy=-154.0921869467, |grad|=0.005945
C     -0.917679     0.075444     0.046422
C      0.510520    -0.406914    -0.151401
O      1.446229     0.355150     0.561198
H     -1.109340     1.006018    -0.498128
H     -1.630605    -0.671454    -0.306701
H     -1.108044     0.251698     1.106258
H      0.755917    -0.428574    -1.220121
H      0.619193    -1.425472     0.222232
H      1.433809     1.244106     0.240242
9
Iteration 0, Energy=-154.0922042526, |grad|=0.008397
C     -0.917227     0.075589     0.047145
C      0.510715    -0.408954    -0.151079
O      1.447089     0.357086     0.560208
H     -1.108316     1.005871    -0.496100
H     -1.631910    -0.671735    -0.309939
H     -1.108223     0.251453     1.107308
H      0.756138    -0.429584    -1.219645
H      0.617968    -1.424999     0.222409
H      1.433767     1.245274     0.239692
9
Iteration 1, Energy=-154.0922236261, |grad|=0.006312
C     -0.917371     0.074554     0.047635
C      0.510987    -0.408882    -0.150871
O      1.447635     0.357661     0.559337
H     -1.107262     1.006084    -0.494296
H     -1.632527    -0.671258    -0.312635
H     -1.108401     0.251059     1.108187
H      0.756312    -0.430721    -1.219209
H      0.617057    -1.425415     0.223057
H      1.433570     1.246919     0.238795
9
Iteration 2, Energy=-154.0922594988, |grad|=0.007183
C     -0.918537     0.070910     0.049219
C      0.511544    -0.408146    -0.149548
O      1.449357     0.361762     0.554956
H     -1.102910     1.007146    -0.486927
H     -1.633760    -0.668245    -0.322453
H     -1.109287     0.248258     1.110710
H      0.756871    -0.435474    -1.217877
H      0.614250    -1.427039     0.226184
H      1.432472     1.250828     0.235736
9
Iteration 3, Energy=-154.0922843093, |grad|=0.009941
C     -0.918420     0.070867     0.050107
C      0.511334    -0.408869    -0.148564
O      1.449781     0.362241     0.552617
H     -1.099780     1.008457    -0.481447
H     -1.633775    -0.665557    -0.328472
H     -1.110550     0.244063     1.111288
H      0.756734    -0.439126    -1.216965
H      0.613734    -1.426605     0.229126
H      1.430943     1.254528     0.232311
9
Iteration 4, Energy=-154.0923184009, |grad|=0.010952
C     -0.918005     0.070831     0.050565
C      0.510838    -0.409409    -0.147964
O      1.449927     0.363773     0.550176
H     -1.096866     1.010653    -0.476502
H     -1.633119    -0.662413    -0.333476
H     -1.112135     0.239083     1.111605
H      0.756248    -0.442765    -1.216093
H      0.613967    -1.425986     0.232469
H      1.429144     1.256233     0.229220
9
Iteration 0, Energy=-154.0122190470, |grad|=0.652186
C     -0.914956     0.138587    -0.029045
C      0.513725    -0.281456    -0.218382
O      1.223878     0.244532     0.782542
H     -1.338570     0.651008    -0.702503
H     -1.627418    -0.830618    -0.012107
H     -1.140314     0.695183     0.998172
H      0.798376    -0.168837    -1.207603
H      0.658111    -1.467670    -0.142419
H      1.764653     1.120237     0.392272
9
Iteration -1, Energy=-154.0923184009, |grad|=0.010952
C     -0.918005     0.070831     0.050565
C      0.510838    -0.409409    -0.147964
O      1.449927     0.363773     0.550176
H     -1.096866     1.010653    -0.476502
H     -1.633119    -0.662413    -0.333476
H     -1.112135     0.239083     1.111605
H      0.756248    -0.442765    -1.216093
H      0.613967    -1.425986     0.232469
H      1.429144     1.256233     0.229220
9
Iteration 0, Energy=-154.0923372585, |grad|=0.006219
C     -0.917660     0.070938     0.050276
C      0.510809    -0.409729    -0.148141
O      1.449828     0.365253     0.549865
H     -1.096863     1.011557    -0.476620
H     -1.632838    -0.662132    -0.333224
H     -1.112494     0.238271     1.111666
H      0.755936    -0.442962    -1.216136
H      0.614416    -1.425686     0.232887
H      1.428866     1.254490     0.229427
9
Iteration 1, Energy=-154.0923491175, |grad|=0.006308
C     -0.917286     0.071279     0.049958
C      0.510952    -0.409788    -0.148250
O      1.449563     0.365372     0.549916
H     -1.096796     1.012674    -0.476678
H     -1.632484    -0.661766    -0.332944
H     -1.112963     0.237099     1.111643
H      0.755524    -0.443282    -1.216245
H      0.615097    -1.425321     0.233546
H      1.428393     1.253733     0.229055
9
Iteration 2, Energy=-154.0923857505, |grad|=0.005558
C     -0.915977     0.073975     0.048798
C      0.511431    -0.410219    -0.148301
O      1.448503     0.364894     0.550442
H     -1.096020     1.017716    -0.476143
H     -1.630753    -0.659848    -0.332192
H     -1.115235     0.230773     1.110985
H      0.753620    -0.445168    -1.217088
H      0.618575    -1.423493     0.237085
H      1.425856     1.251369     0.226413
9
Iteration 3, Energy=-154.0923990809, |grad|=0.009829
C     -0.916027     0.073228     0.048356
C      0.510784    -0.409054    -0.148294
O      1.448807     0.365225     0.549717
H     -1.094022     1.021423    -0.473345
H     -1.629399    -0.656913    -0.334543
H     -1.117011     0.225861     1.111012
H      0.752672    -0.447744    -1.216864
H      0.620334    -1.423433     0.240709
H      1.423864     1.251407     0.223252
9
Iteration 4, Energy=-154.0924202167, |grad|=0.006971
C     -0.915822     0.074283     0.048427
C      0.510885    -0.409771    -0.147655
O      1.448765     0.365517     0.548951
H     -1.092626     1.023140    -0.471053
H     -1.629123    -0.655609    -0.336689
H     -1.118126     0.222659     1.110925
H      0.752133    -0.449374    -1.216775
H      0.621206    -1.422673     0.242688
H      1.422708     1.251828     0.221181
9
Iteration 0, Energy=-154.0218195812, |grad|=0.426551
C     -0.866062    -0.049651     0.140623
C      0.567257    -0.408387    -0.092927
O      1.267842     0.416185     0.793253
H     -1.401325     0.818341    -0.771651
H     -1.684405    -0.763933     0.092685
H     -1.113408     0.615769     1.022060
H      0.690479    -0.083443    -1.146039
H      0.527772    -1.429476     0.023398
H      1.801744     1.084737     0.295561
9
Iteration -1, Energy=-154.0924202167, |grad|=0.006971
C     -0.915822     0.074283     0.048427
C      0.510885    -0.409771    -0.147655
O      1.448765     0.365517     0.548951
H     -1.092626     1.023140    -0.471053
H     -1.629123    -0.655609    -0.336689
H     -1.118126     0.222659     1.110925
H      0.752133    -0.449374    -1.216775
H      0.621206    -1.422673     0.242688
H      1.422708     1.251828     0.221181
9
Iteration 0, Energy=-154.0924280190, |grad|=0.007771
C     -0.915469     0.075799     0.049122
C      0.511601    -0.411707    -0.146851
O      1.448594     0.366394     0.547984
H     -1.092088     1.022265    -0.469671
H     -1.630124    -0.656128    -0.338565
H     -1.118218     0.222502     1.111080
H      0.752291    -0.449703    -1.216494
H      0.620509    -1.421898     0.242443
H      1.422905     1.252475     0.220952
9
Iteration 1, Energy=-154.0924364033, |grad|=0.004134
C     -0.915569     0.074937     0.049096
C      0.511463    -0.411057    -0.147050
O      1.448735     0.366306     0.547925
H     -1.091918     1.022485    -0.469462
H     -1.630013    -0.655769    -0.338879
H     -1.118288     0.222484     1.111287
H      0.752312    -0.449913    -1.216326
H      0.620411    -1.422283     0.242690
H      1.422867     1.252810     0.220719
9
Iteration 2, Energy=-154.0924466755, |grad|=0.003349
C     -0.915711     0.073650     0.049346
C      0.511386    -0.410599    -0.147039
O      1.449057     0.366879     0.547218
H     -1.091177     1.022607    -0.468164
H     -1.630174    -0.655065    -0.340626
H     -1.118533     0.222237     1.111842
H      0.752448    -0.450647    -1.215849
H      0.619851    -1.422769     0.243206
H      1.422851     1.253708     0.220067
9
Iteration 3, Energy=-154.0924601249, |grad|=0.005010
C     -0.915951     0.072041     0.050024
C      0.511363    -0.410539    -0.146611
O      1.449642     0.368291     0.545618
H     -1.089491     1.022677    -0.465096
H     -1.630654    -0.653745    -0.344557
H     -1.119123     0.221297     1.112796
H      0.752706    -0.452288    -1.215016
H      0.618754    -1.423282     0.244276
H      1.422755     1.255548     0.218565
9
Iteration 4, Energy=-154.0924792913, |grad|=0.005992
C     -0.916178     0.070821     0.050885
C      0.511194    -0.410899    -0.145855
O      1.450321     0.370797     0.543280
H     -1.086709     1.023710    -0.460195
H     -1.630867    -0.651289    -0.350269
H     -1.120525     0.218177     1.113791
H      0.752699    -0.455250    -1.214065
H      0.617991    -1.423459     0.246660
H      1.422074     1.257392     0.215766
9
Iteration 0, Energy=-154.0255212055, |grad|=0.637270
C     -0.863405     0.028779    -0.026691
C      0.403047    -0.337097    -0.263694
O      1.198718     0.257375     0.709884
H     -1.364514     0.701720    -0.816936
H     -1.603419    -0.838374    -0.075935
H     -0.992035     0.662704     1.017504
H      0.715215    -0.182766    -1.321060
H      0.645256    -1.393719    -0.094175
H      1.904806     0.957185     0.474748
9
Iteration -1, Energy=-154.0924792913, |grad|=0.005992
C     -0.916178     0.070821     0.050885
C      0.511194    -0.410899    -0.145855
O      1.450321     0.370797     0.543280
H     -1.086709     1.023710    -0.460195
H     -1.630867    -0.651289    -0.350269
H     -1.120525     0.218177     1.113791
H      0.752699    -0.455250    -1.214065
H      0.617991    -1.423459     0.246660
H      1.422074     1.257392     0.215766
9
Iteration 0, Energy=-154.0924873873, |grad|=0.004275
C     -0.915899     0.072399     0.050912
C      0.511531    -0.412004    -0.145329
O      1.449972     0.370593     0.543252
H     -1.086558     1.023956    -0.459831
H     -1.630920    -0.651389    -0.350425
H     -1.120819     0.217157     1.113510
H      0.752481    -0.455476    -1.214293
H      0.618404    -1.422599     0.246889
H      1.421808     1.257364     0.215315
9
Iteration 1, Energy=-154.0924925690, |grad|=0.003813
C     -0.915743     0.072662     0.050813
C      0.511543    -0.411976    -0.145367
O      1.449840     0.370578     0.543264
H     -1.086401     1.024610    -0.459650
H     -1.630696    -0.651089    -0.350455
H     -1.121131     0.216289     1.113420
H      0.752254    -0.455784    -1.214315
H      0.618818    -1.422400     0.247382
H      1.421517     1.257110     0.214909
9
Iteration 2, Energy=-154.0925209003, |grad|=0.007054
C     -0.915398     0.074133     0.049171
C      0.511252    -0.412380    -0.143971
O      1.449393     0.371487     0.542442
H     -1.083552     1.031336    -0.455338
H     -1.628174    -0.646598    -0.353220
H     -1.124671     0.206518     1.113277
H      0.750263    -0.459989    -1.214954
H      0.622469    -1.420250     0.253141
H      1.418418     1.255744     0.209452
9
Iteration 3, Energy=-154.0925312707, |grad|=0.009408
C     -0.913773     0.076134     0.050890
C      0.511566    -0.411911    -0.145418
O      1.448958     0.372869     0.541155
H     -1.080755     1.036294    -0.450834
H     -1.627802    -0.643951    -0.357920
H     -1.127627     0.198653     1.112437
H      0.748590    -0.463834    -1.213419
H      0.624747    -1.419544     0.258413
H      1.416095     1.255291     0.204695
9
Iteration 4, Energy=-154.0925494234, |grad|=0.005363
C     -0.914172     0.075271     0.050426
C      0.511572    -0.412299    -0.144443
O      1.449186     0.373307     0.540517
H     -1.080371     1.035905    -0.449891
H     -1.627874    -0.643497    -0.358970
H     -1.127655     0.198897     1.113093
H      0.748865    -0.464072    -1.213485
H      0.624152    -1.419488     0.258305
H      1.416296     1.255976     0.204448
9
Iteration 0, Energy=-154.0431967894, |grad|=0.577074
C     -0.947178    -0.023606     0.090361
C      0.559699    -0.416858    -0.145437
O      1.244920     0.388368     0.778398
H     -1.350500     0.687443    -0.689967
H     -1.637994    -0.867170     0.059309
H     -1.019869     0.687596     0.920326
H      0.856032    -0.088469    -1.145606
H      0.591249    -1.330979     0.007431
H      1.846726     0.985070     0.310787
9
Iteration -1, Energy=-154.0925494234, |grad|=0.005363
C     -0.914172     0.075271     0.050426
C      0.511572    -0.412299    -0.144443
O      1.449186     0.373307     0.540517
H     -1.080371     1.035905    -0.449891
H     -1.627874    -0.643497    -0.358970
H     -1.127655     0.198897     1.113093
H      0.748865    -0.464072    -1.213485
H      0.624152    -1.419488     0.258305
H      1.416296     1.255976     0.204448
9
Iteration 0, Energy=-154.0925598793, |grad|=0.004812
C     -0.914577     0.074574     0.050040
C      0.511702    -0.413105    -0.143236
O      1.449356     0.373733     0.539739
H     -1.079949     1.035183    -0.448743
H     -1.628070    -0.643096    -0.360272
H     -1.127658     0.199287     1.113796
H      0.749226    -0.464294    -1.213515
H      0.623352    -1.419245     0.258005
H      1.416617     1.256962     0.204187
9
Iteration 1, Energy=-154.0925703064, |grad|=0.003977
C     -0.914809     0.073573     0.050535
C      0.511699    -0.413207    -0.142996
O      1.449716     0.374501     0.538877
H     -1.079328     1.034459    -0.447303
H     -1.628532    -0.642707    -0.362247
H     -1.127698     0.199667     1.114277
H      0.749597    -0.464735    -1.212966
H      0.622387    -1.419611     0.258044
H      1.416968     1.258058     0.203780
9
Iteration 2, Energy=-154.0925851289, |grad|=0.003954
C     -0.914734     0.072841     0.051860
C      0.511639    -0.413129    -0.142608
O      1.450284     0.376494     0.536961
H     -1.077287     1.033945    -0.443090
H     -1.629492    -0.641434    -0.367545
H     -1.128693     0.198221     1.115215
H      0.750010    -0.466760    -1.211873
H      0.621078    -1.420333     0.259475
H      1.417195     1.260155     0.201605
9
Iteration 3, Energy=-154.0925932339, |grad|=0.005502
C     -0.915452     0.070134     0.052965
C      0.511719    -0.413169    -0.142441
O      1.450871     0.378665     0.535088
H     -1.075084     1.035323    -0.438952
H     -1.629300    -0.638787    -0.372540
H     -1.130128     0.195694     1.116130
H      0.750083    -0.469228    -1.210573
H      0.620173    -1.420532     0.261518
H      1.417120     1.261900     0.198805
9
Iteration 4, Energy=-154.0926043997, |grad|=0.004406
C     -0.915152     0.070634     0.053232
C      0.511719    -0.413369    -0.142119
O      1.450808     0.379409     0.534387
H     -1.073947     1.036302    -0.436787
H     -1.629267    -0.637738    -0.374778
H     -1.131193     0.193315     1.116339
H      0.749832    -0.470652    -1.210260
H      0.620457    -1.420236     0.262968
H      1.416743     1.262336     0.197018
9
Iteration 0, Energy=-154.0413757743, |grad|=0.475065
C     -0.968369     0.119892     0.071434
C      0.516165    -0.354069    -0.097526
O      1.337080     0.346759     0.648641
H     -1.335382     0.727436    -0.729709
H     -1.542990    -0.825494     0.007999
H     -1.074956     0.684100     1.037200
H      0.703056    -0.067565    -1.291398
H      0.627679    -1.342892    -0.040244
H      1.926380     1.020866     0.450058
9
Iteration -1, Energy=-154.0926043997, |grad|=0.004406
C     -0.915152     0.070634     0.053232
C      0.511719    -0.413369    -0.142119
O      1.450808     0.379409     0.534387
H     -1.073947     1.036302    -0.436787
H     -1.629267    -0.637738    -0.374778
H     -1.131193     0.193315     1.116339
H      0.749832    -0.470652    -1.210260
H      0.620457    -1.420236     0.262968
H      1.416743     1.262336     0.197018
9
Iteration 0, Energy=-154.0926099619, |grad|=0.003455
C     -0.914947     0.071542     0.052548
C      0.511752    -0.413839    -0.141372
O      1.450523     0.379184     0.534364
H     -1.073885     1.036634    -0.436555
H     -1.629071    -0.637604    -0.374565
H     -1.131478     0.192451     1.116336
H      0.749641    -0.470794    -1.210624
H      0.620948    -1.419636     0.263211
H      1.416517     1.262063     0.196658
9
Iteration 1, Energy=-154.0926150090, |grad|=0.003233
C     -0.914749     0.072098     0.052267
C      0.511729    -0.413846    -0.141291
O      1.450301     0.379029     0.534468
H     -1.073788     1.037469    -0.436413
H     -1.628744    -0.637299    -0.374340
H     -1.131856     0.191285     1.116070
H      0.749316    -0.471060    -1.210705
H      0.621614    -1.419255     0.263799
H      1.416177     1.261579     0.196145
9
Iteration 2, Energy=-154.0926262616, |grad|=0.002916
C     -0.914565     0.072928     0.052003
C      0.511773    -0.414212    -0.141240
O      1.450065     0.379293     0.534597
H     -1.072957     1.040925    -0.434982
H     -1.627690    -0.635662    -0.375059
H     -1.133443     0.186809     1.115357
H      0.748236    -0.472479    -1.210668
H      0.623524    -1.418012     0.266382
H      1.415057     1.260409     0.193611
9
Iteration 3, Energy=-154.0926280750, |grad|=0.006628
C     -0.913556     0.074408     0.051596
C      0.511692    -0.412829    -0.141121
O      1.449561     0.379328     0.533994
H     -1.071626     1.043174    -0.432259
H     -1.627435    -0.634233    -0.377267
H     -1.135241     0.182384     1.115229
H      0.747386    -0.474297    -1.210246
H      0.625093    -1.417960     0.269452
H      1.414126     1.260025     0.190623
9
Iteration 4, Energy=-154.0926359319, |grad|=0.003319
C     -0.913985     0.073771     0.051926
C      0.511771    -0.413570    -0.140969
O      1.449801     0.380080     0.533716
H     -1.071380     1.043514    -0.431754
H     -1.627300    -0.633773    -0.377963
H     -1.135387     0.182093     1.115262
H      0.747424    -0.474543    -1.210125
H      0.624857    -1.417631     0.269579
H      1.414200     1.260060     0.190328
9
Iteration 0, Energy=-154.0282827205, |grad|=0.490152
C     -0.938102     0.031292     0.097127
C      0.408026    -0.410147    -0.093000
O      1.222282     0.254569     0.808683
H     -1.413654     0.708450    -0.681860
H     -1.586850    -0.867755     0.048666
H     -1.075426     0.563856     0.975680
H      0.861802    -0.159942    -1.157043
H      0.494335    -1.463728    -0.009866
H      1.901667     1.064652     0.328107
9
Iteration -1, Energy=-154.0926359319, |grad|=0.003319
C     -0.913985     0.073771     0.051926
C      0.511771    -0.413570    -0.140969
O      1.449801     0.380080     0.533716
H     -1.071380     1.043514    -0.431754
H     -1.627300    -0.633773    -0.377963
H     -1.135387     0.182093     1.115262
H      0.747424    -0.474543    -1.210125
H      0.624857    -1.417631     0.269579
H      1.414200     1.260060     0.190328
9
Iteration 0, Energy=-154.0926398779, |grad|=0.003440
C     -0.914443     0.073112     0.052089
C      0.511847    -0.414576    -0.140349
O      1.449988     0.380500     0.533302
H     -1.071103     1.043224    -0.431028
H     -1.627274    -0.633344    -0.378883
H     -1.135435     0.182234     1.115533
H      0.747666    -0.474733    -1.210040
H      0.624287    -1.417200     0.269334
H      1.414467     1.260783     0.190042
9
Iteration 1, Energy=-154.0926434034, |grad|=0.002568
C     -0.914487     0.072678     0.052371
C      0.511783    -0.414477    -0.140366
O      1.450119     0.380835     0.532954
H     -1.070804     1.042938    -0.430342
H     -1.627437    -0.633106    -0.379815
H     -1.135546     0.182274     1.115757
H      0.747824    -0.474999    -1.209747
H      0.623900    -1.417419     0.269442
H      1.414647     1.261277     0.189745
9
Iteration 2, Energy=-154.0926488434, |grad|=0.003513
C     -0.914499     0.071935     0.053017
C      0.511796    -0.414120    -0.139807
O      1.450311     0.382588     0.531306
H     -1.069481     1.042077    -0.427322
H     -1.628081    -0.632168    -0.383549
H     -1.136289     0.181602     1.116723
H      0.748277    -0.476294    -1.208963
H      0.622744    -1.418090     0.270201
H      1.415221     1.262471     0.188393
9
Iteration 3, Energy=-154.0926513490, |grad|=0.003930
C     -0.914700     0.071076     0.053585
C      0.511798    -0.414006    -0.139917
O      1.450502     0.382565     0.531076
H     -1.068785     1.042578    -0.425922
H     -1.628020    -0.631312    -0.385261
H     -1.136865     0.180647     1.116928
H      0.748295    -0.477127    -1.208434
H      0.622491    -1.418132     0.270932
H      1.415285     1.263710     0.187014
9
Iteration 4, Energy=-154.0926540331, |grad|=0.002747
C     -0.914663     0.071222     0.053528
C      0.511774    -0.414120    -0.139876
O      1.450481     0.382833     0.531041
H     -1.068680     1.042954    -0.425728
H     -1.627908    -0.631140    -0.385368
H     -1.137075     0.180116     1.116886
H      0.748181    -0.477314    -1.208452
H      0.622690    -1.417974     0.271195
H      1.415200     1.263423     0.186775
9
Iteration 0, Energy=-154.0414583038, |grad|=0.533773
C     -0.901734     0.107688    -0.022964
C      0.440606    -0.314117    -0.089092
O      1.288104     0.339176     0.824396
H     -1.286462     0.648211    -0.721782
H     -1.552940    -0.775425     0.116592
H     -1.118811     0.640140     1.038451
H      0.835711    -0.089853    -1.142831
H      0.657517    -1.340784    -0.067639
H      1.835725     1.071760     0.479211
9
Iteration -1, Energy=-154.0926540331, |grad|=0.002747
C     -0.914663     0.071222     0.053528
C      0.511774    -0.414120    -0.139876
O      1.450481     0.382833     0.531041
H     -1.068680     1.042954    -0.425728
H     -1.627908    -0.631140    -0.385368
H     -1.137075     0.180116     1.116886
H      0.748181    -0.477314    -1.208452
H      0.622690    -1.417974     0.271195
H      1.415200     1.263423     0.186775
9
Iteration 0, Energy=-154.0926550797, |grad|=0.001990
C     -0.914643     0.071365     0.053436
C      0.511767    -0.414252    -0.139768
O      1.450452     0.382991     0.530994
H     -1.068659     1.043056    -0.425669
H     -1.627863    -0.631098    -0.385355
H     -1.137141     0.179925     1.116873
H      0.748141    -0.477353    -1.208507
H      0.622776    -1.417858     0.271255
H      1.415171     1.263226     0.186741
9
Iteration 1, Energy=-154.0926573289, |grad|=0.002251
C     -0.914562     0.071804     0.053184
C      0.511765    -0.414491    -0.139522
O      1.450325     0.383175     0.530963
H     -1.068559     1.043574    -0.425444
H     -1.627670    -0.630891    -0.385331
H     -1.137429     0.179107     1.116765
H      0.747952    -0.477554    -1.208631
H      0.623166    -1.417511     0.271612
H      1.415012     1.262786     0.186403
9
Iteration 2, Energy=-154.0926600567, |grad|=0.002786
C     -0.914422     0.072332     0.052939
C      0.511757    -0.414591    -0.139371
O      1.450140     0.383256     0.531003
H     -1.068353     1.044565    -0.425034
H     -1.627341    -0.630476    -0.385392
H     -1.137943     0.177680     1.116531
H      0.747612    -0.477952    -1.208696
H      0.623831    -1.417083     0.272353
H      1.414721     1.262269     0.185667
9
Iteration 3, Energy=-154.0926644364, |grad|=0.002250
C     -0.914244     0.072840     0.052777
C      0.511772    -0.414589    -0.139181
O      1.449924     0.383380     0.530924
H     -1.067767     1.046249    -0.423791
H     -1.626886    -0.629533    -0.386247
H     -1.138962     0.175108     1.116256
H      0.747092    -0.478852    -1.208562
H      0.624760    -1.416508     0.273862
H      1.414310     1.261906     0.183962
9
Iteration 4, Energy=-154.0926713952, |grad|=0.003232
C     -0.914058     0.073151     0.052922
C      0.511719    -0.414456    -0.138862
O      1.449763     0.384572     0.530139
H     -1.066234     1.049011    -0.420404
H     -1.626275    -0.627388    -0.389287
H     -1.141048     0.170283     1.116043
H      0.746343    -0.480904    -1.207892
H      0.625942    -1.415787     0.276934
H      1.413849     1.261518     0.180407
9
Iteration 0, Energy=-154.0571860203, |grad|=0.382511
C     -0.946646    -0.014024    -0.036232
C      0.543105    -0.387883    -0.126196
O      1.345474     0.225101     0.709422
H     -1.445840     0.749480    -0.666583
H     -1.527007    -0.877438    -0.041220
H     -1.049910     0.519335     0.933744
H      0.837536    -0.094352    -1.139302
H      0.601401    -1.522690    -0.130435
H      1.874478     0.987260     0.292405
9
Iteration -1, Energy=-154.0926713952, |grad|=0.003232
C     -0.914058     0.073151     0.052922
C      0.511719    -0.414456    -0.138862
O      1.449763     0.384572     0.530139
H     -1.066234     1.049011    -0.420404
H     -1.626275    -0.627388    -0.389287
H     -1.141048     0.170283     1.116043
H      0.746343    -0.480904    -1.207892
H      0.625942    -1.415787     0.276934
H      1.413849     1.261518     0.180407
9
Iteration 0, Energy=-154.0926728527, |grad|=0.005150
C     -0.914232     0.072819     0.052981
C      0.511894    -0.414717    -0.138311
O      1.449807     0.383906     0.530021
H     -1.066002     1.048518    -0.419730
H     -1.626467    -0.627205    -0.390184
H     -1.141095     0.170497     1.116409
H      0.746573    -0.481055    -1.207829
H      0.625458    -1.415696     0.276803
H      1.414065     1.262934     0.179840
9
Iteration 1, Energy=-154.0926756576, |grad|=0.002387
C     -0.914229     0.072705     0.053085
C      0.511824    -0.414709    -0.138426
O      1.449874     0.384452     0.529835
H     -1.065953     1.048485    -0.419619
H     -1.626500    -0.627164    -0.390363
H     -1.141117     0.170510     1.116434
H      0.746598    -0.481100    -1.207737
H      0.625376    -1.415791     0.276837
H      1.414128     1.262612     0.179953
9
Iteration 2, Energy=-154.0926779948, |grad|=0.001407
C     -0.914306     0.072306     0.053339
C      0.511776    -0.414723    -0.138428
O      1.450019     0.385110     0.529440
H     -1.065725     1.048204    -0.419048
H     -1.626655    -0.626976    -0.391177
H     -1.141204     0.170599     1.116653
H      0.746751    -0.481288    -1.207499
H      0.624997    -1.415974     0.276889
H      1.414346     1.262742     0.179832
9
Iteration 3, Energy=-154.0926797701, |grad|=0.001559
C     -0.914436     0.071755     0.053679
C      0.511758    -0.414700    -0.138329
O      1.450187     0.385696     0.528946
H     -1.065348     1.047821    -0.418109
H     -1.626865    -0.626644    -0.392449
H     -1.141384     0.170616     1.116990
H      0.746970    -0.481624    -1.207169
H      0.624468    -1.416203     0.277021
H      1.414649     1.263282     0.179419
9
Iteration 4, Energy=-154.0926820019, |grad|=0.001664
C     -0.914553     0.071470     0.053906
C      0.511757    -0.414798    -0.138009
O      1.450237     0.386284     0.528450
H     -1.064794     1.047914    -0.416778
H     -1.626890    -0.626024    -0.393936
H     -1.141907     0.169808     1.117267
H      0.747051    -0.482261    -1.206885
H      0.624222    -1.416162     0.277529
H      1.414876     1.263768     0.178455
9
Iteration 0, Energy=-154.0497487163, |grad|=0.316056
C     -0.891187     0.080194     0.024884
C      0.577845    -0.253541    -0.206938
O      1.263659     0.293779     0.819602
H     -1.404256     0.754351    -0.663764
H     -1.495961    -0.821333     0.039886
H     -1.140387     0.629810     0.934171
H      0.743674    -0.059797    -1.261407
H      0.633348    -1.496385     0.020683
H      1.739959     1.035444     0.469998
9
Iteration -1, Energy=-154.0926820019, |grad|=0.001664
C     -0.914553     0.071470     0.053906
C      0.511757    -0.414798    -0.138009
O      1.450237     0.386284     0.528450
H     -1.064794     1.047914    -0.416778
H     -1.626890    -0.626024    -0.393936
H     -1.141907     0.169808     1.117267
H      0.747051    -0.482261    -1.206885
H      0.624222    -1.416162     0.277529
H      1.414876     1.263768     0.178455
9
Iteration 0, Energy=-154.0926825241, |grad|=0.002474
C     -0.914502     0.071538     0.053887
C      0.511799    -0.414637    -0.138034
O      1.450154     0.385812     0.528620
H     -1.064719     1.048241    -0.416633
H     -1.626799    -0.625884    -0.394003
H     -1.142086     0.169371     1.117202
H      0.746947    -0.482411    -1.206844
H      0.624419    -1.416091     0.277793
H      1.414788     1.264061     0.178013
9
Iteration 1, Energy=-154.0926832407, |grad|=0.001566
C     -0.914488     0.071591     0.053868
C      0.511783    -0.414689    -0.138012
O      1.450143     0.385988     0.528571
H     -1.064687     1.048351    -0.416557
H     -1.626765    -0.625829    -0.394046
H     -1.142157     0.169198     1.117184
H      0.746914    -0.482466    -1.206843
H      0.624477    -1.416036     0.277873
H      1.414779     1.263893     0.177961
9
Iteration 2, Energy=-154.0926852350, |grad|=0.001403
C     -0.914394     0.071895     0.053763
C      0.511753    -0.414804    -0.137899
O      1.450023     0.386422     0.528467
H     -1.064453     1.049129    -0.416021
H     -1.626532    -0.625431    -0.394362
H     -1.142654     0.167996     1.117054
H      0.746677    -0.482870    -1.206803
H      0.624908    -1.415717     0.278493
H      1.414672     1.263379     0.177309
9
Iteration 3, Energy=-154.0926869965, |grad|=0.002123
C     -0.914295     0.072264     0.053648
C      0.511743    -0.414863    -0.137714
O      1.449854     0.386735     0.528373
H     -1.064076     1.050193    -0.415153
H     -1.626221    -0.624822    -0.394945
H     -1.143375     0.166282     1.116890
H      0.746360    -0.483477    -1.206717
H      0.625482    -1.415307     0.279417
H      1.414529     1.262995     0.176200
9
Iteration 4, Energy=-154.0926907460, |grad|=0.002706
C     -0.914255     0.072536     0.053677
C      0.511713    -0.414928    -0.137271
O      1.449695     0.387522     0.527917
H     -1.063141     1.051839    -0.412881
H     -1.625810    -0.623471    -0.396922
H     -1.144789     0.163174     1.116779
H      0.745938    -0.484765    -1.206340
H      0.626172    -1.414716     0.281248
H      1.414477     1.262808     0.173793
9
Iteration 0, Energy=-154.0301016487, |grad|=0.433691
C     -0.918370    -0.030274     0.131570
C      0.500283    -0.382693    -0.135729
O      1.285758     0.284834     0.696277
H     -1.450974     0.832868    -0.762523
H     -1.544572    -0.877817     0.103849
H     -0.993239     0.601049     0.979406
H      0.775111    -0.090537    -1.271064
H      0.490231    -1.496832    -0.020468
H      1.742041     0.989600     0.397252
9
Iteration -1, Energy=-154.0926907460, |grad|=0.002706
C     -0.914255     0.072536     0.053677
C      0.511713    -0.414928    -0.137271
O      1.449695     0.387522     0.527917
H     -1.063141     1.051839    -0.412881
H     -1.625810    -0.623471    -0.396922
H     -1.144789     0.163174     1.116779
H      0.745938    -0.484765    -1.206340
H      0.626172    -1.414716     0.281248
H      1.414477     1.262808     0.173793
9
Iteration 0, Energy=-154.0926919269, |grad|=0.001835
C     -0.914294     0.072374     0.053743
C      0.511767    -0.414808    -0.137230
O      1.449706     0.387138     0.527947
H     -1.063068     1.051719    -0.412679
H     -1.625872    -0.623404    -0.397208
H     -1.144810     0.163226     1.116865
H      0.745993    -0.484815    -1.206260
H      0.626049    -1.414786     0.281285
H      1.414529     1.263356     0.173537
9
Iteration 1, Energy=-154.0926926280, |grad|=0.001624
C     -0.914325     0.072250     0.053806
C      0.511767    -0.414827    -0.137193
O      1.449747     0.387258     0.527836
H     -1.063001     1.051614    -0.412485
H     -1.625927    -0.623342    -0.397477
H     -1.144836     0.163260     1.116941
H      0.746046    -0.484859    -1.206191
H      0.625926    -1.414825     0.281302
H      1.414603     1.263470     0.173461
9
Iteration 2, Energy=-154.0926964181, |grad|=0.000978
C     -0.914644     0.071330     0.054416
C      0.511729    -0.414913    -0.136795
O      1.450047     0.388445     0.526861
H     -1.062217     1.051107    -0.410346
H     -1.626237    -0.622492    -0.400171
H     -1.145396     0.162766     1.117513
H      0.746405    -0.485573    -1.205586
H      0.625076    -1.415064     0.281877
H      1.415236     1.264394     0.172231
9
Iteration 3, Energy=-154.0926978428, |grad|=0.001852
C     -0.914545     0.070981     0.054361
C      0.511758    -0.415239    -0.136415
O      1.450027     0.389040     0.526356
H     -1.061725     1.051431    -0.408936
H     -1.626258    -0.621815    -0.401703
H     -1.146085     0.161755     1.117966
H      0.746400    -0.486161    -1.205184
H      0.624904    -1.414768     0.282471
H      1.415524     1.264777     0.171083
9
Iteration 4, Energy=-154.0927008015, |grad|=0.002226
C     -0.914541     0.070539     0.054732
C      0.511809    -0.415339    -0.135999
O      1.449963     0.390150     0.525522
H     -1.060738     1.052283    -0.406306
H     -1.626195    -0.620497    -0.404509
H     -1.147406     0.159476     1.118323
H      0.746314    -0.487395    -1.204441
H      0.624826    -1.414457     0.283898
H      1.415968     1.265239     0.168779
9
Iteration 0, Energy=-154.0243514412, |grad|=0.561240
C     -0.857615     0.117043     0.141617
C      0.506799    -0.287292    -0.133394
O      1.274367     0.316475     0.747646
H     -1.402911     0.764058    -0.666760
H     -1.665097    -0.896781     0.106343
H     -1.059885     0.596151     0.978642
H      0.715914    -0.130583    -1.320441
H      0.633548    -1.436317    -0.050204
H      1.746443     1.017132     0.292733
9
Iteration -1, Energy=-154.0927008015, |grad|=0.002226
C     -0.914541     0.070539     0.054732
C      0.511809    -0.415339    -0.135999
O      1.449963     0.390150     0.525522
H     -1.060738     1.052283    -0.406306
H     -1.626195    -0.620497    -0.404509
H     -1.147406     0.159476     1.118323
H      0.746314    -0.487395    -1.204441
H      0.624826    -1.414457     0.283898
H      1.415968     1.265239     0.168779
9
Iteration 0, Energy=-154.0927020539, |grad|=0.001448
C     -0.914730     0.070780     0.054912
C      0.511776    -0.415018    -0.136036
O      1.449954     0.389962     0.525680
H     -1.060686     1.052434    -0.406286
H     -1.626067    -0.620430    -0.404398
H     -1.147435     0.159146     1.117990
H      0.746262    -0.487491    -1.204567
H      0.625050    -1.414568     0.284122
H      1.415876     1.265184     0.168584
9
Iteration 1, Energy=-154.0927030250, |grad|=0.001279
C     -0.914850     0.071109     0.054886
C      0.511681    -0.414915    -0.135976
O      1.449944     0.390002     0.525813
H     -1.060637     1.052738    -0.406228
H     -1.625875    -0.620313    -0.404232
H     -1.147558     0.158623     1.117718
H      0.746157    -0.487612    -1.204735
H      0.625368    -1.414508     0.284383
H      1.415770     1.264875     0.168369
9
Iteration 2, Energy=-154.0927041416, |grad|=0.001558
C     -0.914733     0.071590     0.054586
C      0.511623    -0.414928    -0.135911
O      1.449787     0.389756     0.526124
H     -1.060568     1.053650    -0.406059
H     -1.625542    -0.620049    -0.404008
H     -1.147994     0.157432     1.117468
H      0.745843    -0.487869    -1.204833
H      0.626019    -1.414122     0.284949
H      1.415565     1.264539     0.167684
9
Iteration 3, Energy=-154.0927045904, |grad|=0.001626
C     -0.914528     0.071761     0.054612
C      0.511741    -0.414968    -0.135971
O      1.449583     0.390129     0.525986
H     -1.060475     1.054336    -0.405765
H     -1.625447    -0.619850    -0.404214
H     -1.148375     0.156574     1.117342
H      0.745622    -0.488090    -1.204663
H      0.626336    -1.413874     0.285405
H      1.415543     1.263982     0.167269
9
Iteration 4, Energy=-154.0927050058, |grad|=0.000940
C     -0.914516     0.071681     0.054528
C      0.511744    -0.415044    -0.135871
O      1.449595     0.390079     0.525949
H     -1.060449     1.054263    -0.405653
H     -1.625475    -0.619812    -0.404350
H     -1.148399     0.156613     1.117464
H      0.745653    -0.488098    -1.204641
H      0.626259    -1.413836     0.285381
H      1.415589     1.264154     0.167193
9
Iteration 0, Energy=-154.0273560083, |grad|=0.593428
C     -1.020535    -0.039825     0.041574
C      0.480219    -0.236495    -0.108349
O      1.211195     0.345633     0.820123
H     -1.340851     0.654670    -0.821727
H     -1.609211    -0.832987     0.116114
H     -1.169921     0.606986     1.011822
H      0.810652    -0.171159    -1.178702
H      0.524583    -1.481957     0.031795
H      1.800381     1.146794     0.384930
9
Iteration -1, Energy=-154.0927050058, |grad|=0.000940
C     -0.914516     0.071681     0.054528
C      0.511744    -0.415044    -0.135871
O      1.449595     0.390079     0.525949
H     -1.060449     1.054263    -0.405653
H     -1.625475    -0.619812    -0.404350
H     -1.148399     0.156613     1.117464
H      0.745653    -0.488098    -1.204641
H      0.626259    -1.413836     0.285381
H      1.415589     1.264154     0.167193
9
Iteration 0, Energy=-154.0927052431, |grad|=0.002083
C     -0.914659     0.071515     0.054503
C      0.511660    -0.415032    -0.135681
O      1.449710     0.389934     0.525927
H     -1.060296     1.054087    -0.405201
H     -1.625485    -0.619608    -0.404830
H     -1.148496     0.156522     1.117598
H      0.745743    -0.488216    -1.204603
H      0.626119    -1.413866     0.285495
H      1.415704     1.264664     0.166792
9
Iteration 0, Energy=-154.0062106579, |grad|=0.967996
C     -0.987743     0.095590    -0.039777
C      0.395722    -0.324130    -0.242759
O      1.293229     0.375447     0.673209
H     -1.290882     0.651635    -0.678728
H     -1.554462    -0.877710    -0.063036
H     -1.065502     0.589999     0.941517
H      0.746429    -0.094963    -1.275930
H      0.657650    -1.388663     0.054771
H      1.782792     0.981443     0.443475
9
Iteration -1, Energy=-154.0927052431, |grad|=0.002083
C     -0.914659     0.071515     0.054503
C      0.511660    -0.415032    -0.135681
O      1.449710     0.389934     0.525927
H     -1.060296     1.054087    -0.405201
H     -1.625485    -0.619608    -0.404830
H     -1.148496     0.156522     1.117598
H      0.745743    -0.488216    -1.204603
H      0.626119    -1.413866     0.285495
H      1.415704     1.264664     0.166792
9
Iteration 0, Energy=-154.0927057593, |grad|=0.000664
C     -0.914641     0.071498     0.054586
C      0.511666    -0.415070    -0.135729
O      1.449709     0.390238     0.525811
H     -1.060281     1.054116    -0.405155
H     -1.625506    -0.619599    -0.404915
H     -1.148520     0.156485     1.117582
H      0.745740    -0.488235    -1.204551
H      0.626097    -1.413872     0.285521
H      1.415737     1.264438     0.166850
9
Iteration 1, Energy=-154.0927058704, |grad|=0.000656
C     -0.914632     0.071473     0.054631
C      0.511687    -0.415065    -0.135737
O      1.449696     0.390306     0.525764
H     -1.060258     1.054140    -0.405086
H     -1.625520    -0.619572    -0.405011
H     -1.148555     0.156434     1.117587
H      0.745738    -0.488264    -1.204511
H      0.626082    -1.413873     0.285559
H      1.415761     1.264421     0.166804
9
Iteration 0, Energy=-154.0207695244, |grad|=0.601535
C     -0.885612     0.024362    -0.034468
C      0.494041    -0.356751    -0.109414
O      1.228582     0.234109     0.808910
H     -1.445821     0.827853    -0.737038
H     -1.679306    -0.796081    -0.047433
H     -1.101628     0.583261     0.984158
H      0.800318    -0.155673    -1.284805
H      0.501253    -1.351168     0.020738
H      1.900984     0.985089     0.464373
9
Iteration -1, Energy=-154.0927058704, |grad|=0.000656
C     -0.914632     0.071473     0.054631
C      0.511687    -0.415065    -0.135737
O      1.449696     0.390306     0.525764
H     -1.060258     1.054140    -0.405086
H     -1.625520    -0.619572    -0.405011
H     -1.148555     0.156434     1.117587
H      0.745738    -0.488264    -1.204511
H      0.626082    -1.413873     0.285559
H      1.415761     1.264421     0.166804
9
Iteration 0, Energy=-154.0927062462, |grad|=0.002122
C     -0.914638     0.071310     0.054690
C      0.511774    -0.415013    -0.135572
O      1.449641     0.390219     0.525632
H     -1.060049     1.054253    -0.404459
H     -1.625546    -0.619286    -0.405712
H     -1.148850     0.155996     1.117736
H      0.745746    -0.488508    -1.204332
H      0.626009    -1.413817     0.285862
H      1.415912     1.264847     0.166155
9
Iteration 1, Energy=-154.0927069276, |grad|=0.001559
C     -0.914653     0.071232     0.054749
C      0.511773    -0.415048    -0.135499
O      1.449644     0.390468     0.525484
H     -1.059920     1.054331    -0.404077
H     -1.625549    -0.619107    -0.406133
H     -1.149030     0.155709     1.117798
H      0.745750    -0.488659    -1.204227
H      0.625969    -1.413779     0.286047
H      1.416015     1.264855     0.165858
9
Iteration 2, Energy=-154.0927102122, |grad|=0.001645
C     -0.914864     0.070477     0.055345
C      0.511756    -0.415230    -0.134741
O      1.449668     0.392460     0.524195
H     -1.058569     1.055191    -0.400111
H     -1.625523    -0.617222    -0.410426
H     -1.150912     0.152623     1.118362
H      0.745770    -0.490259    -1.203182
H      0.625657    -1.413407     0.288045
H      1.417017     1.265367     0.162513
9
Iteration 3, Energy=-154.0927119397, |grad|=0.001848
C     -0.915095     0.070276     0.055634
C      0.511619    -0.415250    -0.134267
O      1.449697     0.393445     0.523664
H     -1.057735     1.055937    -0.397720
H     -1.625316    -0.615991    -0.412788
H     -1.152131     0.150376     1.118475
H      0.745697    -0.491308    -1.202686
H      0.625743    -1.413117     0.289422
H      1.417520     1.265632     0.160265
9
Iteration 4, Energy=-154.0927164027, |grad|=0.002989
C     -0.915058     0.069801     0.056307
C      0.511838    -0.415440    -0.131985
O      1.448799     0.397341     0.521158
H     -1.054232     1.060732    -0.387327
H     -1.624370    -0.610594    -0.422828
H     -1.158187     0.139221     1.119131
H      0.744820    -0.496082    -1.200217
H      0.626796    -1.411032     0.295905
H      1.419595     1.266053     0.149855
9
Iteration 0, Energy=-154.0167641925, |grad|=0.589447
C     -0.853981     0.034830     0.115243
C      0.558351    -0.384847    -0.180307
O      1.217950     0.280110     0.692377
H     -1.315947     0.801478    -0.762937
H     -1.508807    -0.813728    -0.035272
H     -1.024511     0.568157     1.110609
H      0.697273    -0.095111    -1.192153
H      0.562182    -1.429641    -0.063545
H      1.923572     1.027855     0.301357
9
Iteration -1, Energy=-154.0927164027, |grad|=0.002989
C     -0.915058     0.069801     0.056307
C      0.511838    -0.415440    -0.131985
O      1.448799     0.397341     0.521158
H     -1.054232     1.060732    -0.387327
H     -1.624370    -0.610594    -0.422828
H     -1.158187     0.139221     1.119131
H      0.744820    -0.496082    -1.200217
H      0.626796    -1.411032     0.295905
H      1.419595     1.266053     0.149855
9
Iteration 0, Energy=-154.0927179036, |grad|=0.001912
C     -0.915403     0.069964     0.056422
C      0.511592    -0.415214    -0.132208
O      1.449010     0.396862     0.521633
H     -1.054208     1.060757    -0.387354
H     -1.624141    -0.610480    -0.422562
H     -1.158141     0.139027     1.118741
H      0.744793    -0.496121    -1.200322
H      0.627023    -1.411133     0.296070
H      1.419477     1.266338     0.149580
9
Iteration 1, Energy=-154.0927184534, |grad|=0.000943
C     -0.915453     0.070089     0.056376
C      0.511493    -0.415255    -0.132179
O      1.449054     0.397012     0.521668
H     -1.054222     1.060807    -0.387376
H     -1.624065    -0.610457    -0.422428
H     -1.158150     0.138914     1.118628
H      0.744771    -0.496122    -1.200407
H      0.627126    -1.411093     0.296105
H      1.419447     1.266106     0.149613
9
Iteration 2, Energy=-154.0927188256, |grad|=0.000762
C     -0.915464     0.070293     0.056274
C      0.511406    -0.415265    -0.132128
O      1.449051     0.397039     0.521768
H     -1.054266     1.060959    -0.387438
H     -1.623958    -0.610440    -0.422185
H     -1.158190     0.138697     1.118461
H      0.744709    -0.496119    -1.200523
H      0.627324    -1.411006     0.296179
H      1.419387     1.265842     0.149593
9
Iteration 3, Energy=-154.0927191017, |grad|=0.000583
C     -0.915371     0.070478     0.056162
C      0.511431    -0.415248    -0.132129
O      1.448959     0.396943     0.521875
H     -1.054344     1.061228    -0.387547
H     -1.623883    -0.610457    -0.421924
H     -1.158272     0.138443     1.118325
H      0.744604    -0.496099    -1.200569
H      0.627550    -1.410880     0.296275
H      1.419327     1.265591     0.149533
9
Iteration 0, Energy=-154.0394236153, |grad|=0.445315
C     -0.938879    -0.008306     0.093636
C      0.536654    -0.294739    -0.104409
O      1.361725     0.230295     0.717420
H     -1.448977     0.787345    -0.799803
H     -1.521174    -0.951987     0.114162
H     -1.153196     0.555572     0.943674
H      0.721908    -0.213445    -1.232602
H      0.662325    -1.370257    -0.099961
H      1.840767     0.985126     0.464921
9
Iteration -1, Energy=-154.0927191017, |grad|=0.000583
C     -0.915371     0.070478     0.056162
C      0.511431    -0.415248    -0.132129
O      1.448959     0.396943     0.521875
H     -1.054344     1.061228    -0.387547
H     -1.623883    -0.610457    -0.421924
H     -1.158272     0.138443     1.118325
H      0.744604    -0.496099    -1.200569
H      0.627550    -1.410880     0.296275
H      1.419327     1.265591     0.149533
9
Iteration 0, Energy=-154.0927191502, |grad|=0.000286
C     -0.915338     0.070472     0.056157
C      0.511478    -0.415223    -0.132151
O      1.448923     0.396832     0.521905
H     -1.054361     1.061280    -0.387566
H     -1.623893    -0.610470    -0.421913
H     -1.158291     0.138421     1.118333
H      0.744586    -0.496090    -1.200542
H      0.627569    -1.410866     0.296290
H      1.419328     1.265643     0.149486
9
Iteration 0, Energy=-154.0491314281, |grad|=0.392252
C     -0.951297     0.119199     0.046963
C      0.402636    -0.368290    -0.106836
O      1.190660     0.379772     0.738524
H     -1.403995     0.768301    -0.798151
H     -1.674250    -0.775043     0.121635
H     -1.113973     0.615232     0.996181
H      0.765746    -0.048301    -1.283229
H      0.627693    -1.440945    -0.102363
H      1.786365     0.975095     0.357010
