9
Iteration -1, Energy=-154.0837996503, |grad|=0.044117
C     -0.977020     0.054531     0.039344
C      0.487693    -0.332548    -0.192952
O      1.302254     0.336299     0.743792
H     -1.353582     0.729531    -0.729129
H     -1.591671    -0.850511     0.025441
H     -1.069217     0.581118     0.999619
H      0.788253    -0.138478    -1.230198
H      0.594696    -1.412625    -0.042175
H      1.818594     1.032682     0.386258
9
Iteration 0, Energy=-154.0843833249, |grad|=0.059413
C     -0.977280     0.053879     0.035312
C      0.484312    -0.325026    -0.187773
O      1.305233     0.320355     0.751886
H     -1.354690     0.731318    -0.731808
H     -1.597106    -0.844075     0.028915
H     -1.069673     0.569254     0.994917
H      0.790027    -0.136048    -1.225589
H      0.600639    -1.406722    -0.038040
H      1.818537     1.037066     0.372179
9
Iteration 1, Energy=-154.0849708820, |grad|=0.035094
C     -0.978177     0.054365     0.032267
C      0.483032    -0.324225    -0.185418
O      1.313796     0.319380     0.752837
H     -1.355398     0.732475    -0.733440
H     -1.600947    -0.840538     0.030813
H     -1.070298     0.562238     0.992956
H      0.791269    -0.133974    -1.221992
H      0.603824    -1.402234    -0.035695
H      1.812900     1.032512     0.367673
9
Iteration 2, Energy=-154.0855525641, |grad|=0.015882
C     -0.980572     0.055962     0.025149
C      0.485382    -0.322798    -0.179253
O      1.331056     0.312521     0.753421
H     -1.357325     0.736354    -0.738314
H     -1.612045    -0.832437     0.034509
H     -1.072982     0.545639     0.990668
H      0.794820    -0.127776    -1.211446
H      0.611494    -1.392164    -0.028851
H      1.800172     1.024698     0.354117
9
Iteration 3, Energy=-154.0857041185, |grad|=0.012918
C     -0.979866     0.055951     0.024226
C      0.487718    -0.323802    -0.177507
O      1.336536     0.309057     0.751367
H     -1.357812     0.739262    -0.740843
H     -1.617745    -0.830150     0.033355
H     -1.075975     0.541528     0.993742
H      0.798074    -0.123818    -1.206927
H      0.613990    -1.392890    -0.024920
H      1.795081     1.024862     0.347508
9
Iteration 4, Energy=-154.0858879114, |grad|=0.019755
C     -0.984349     0.059975     0.025899
C      0.492191    -0.332712    -0.172545
O      1.350274     0.301923     0.745186
H     -1.353411     0.743306    -0.740109
H     -1.629306    -0.822421     0.024813
H     -1.085134     0.532524     1.000771
H      0.809041    -0.114233    -1.198539
H      0.618760    -1.399964    -0.015309
H      1.781934     1.031603     0.329834
9
Iteration 0, Energy=-154.0378396116, |grad|=0.558825
C     -0.905691     0.116632     0.039997
C      0.578310    -0.366860    -0.179545
O      1.268780     0.271992     0.679680
H     -1.368089     0.650752    -0.829576
H     -1.586276    -0.793072     0.082127
H     -1.142159     0.512822     0.921933
H      0.749537    -0.122233    -1.212013
H      0.669900    -1.370585     0.010389
H      1.871588     1.014980     0.469821
9
Iteration -1, Energy=-154.0858879114, |grad|=0.019755
C     -0.984349     0.059975     0.025899
C      0.492191    -0.332712    -0.172545
O      1.350274     0.301923     0.745186
H     -1.353411     0.743306    -0.740109
H     -1.629306    -0.822421     0.024813
H     -1.085134     0.532524     1.000771
H      0.809041    -0.114233    -1.198539
H      0.618760    -1.399964    -0.015309
H      1.781934     1.031603     0.329834
9
Iteration 0, Energy=-154.0859565451, |grad|=0.009760
C     -0.981954     0.057697     0.026682
C      0.490914    -0.330743    -0.173223
O      1.350611     0.302731     0.744626
H     -1.352888     0.744321    -0.739948
H     -1.629267    -0.822193     0.023716
H     -1.085654     0.533271     1.001545
H      0.808783    -0.115457    -1.198207
H      0.618427    -1.401522    -0.015309
H      1.781028     1.031895     0.330117
9
Iteration 1, Energy=-154.0859975546, |grad|=0.009758
C     -0.979824     0.056415     0.027604
C      0.490388    -0.330369    -0.173284
O      1.350379     0.303304     0.743840
H     -1.351326     0.745188    -0.738538
H     -1.629111    -0.822165     0.021705
H     -1.086398     0.534042     1.002367
H      0.808331    -0.117405    -1.198184
H      0.617654    -1.402515    -0.015595
H      1.779906     1.033506     0.330084
9
Iteration 2, Energy=-154.0860846868, |grad|=0.014129
C     -0.976153     0.054511     0.030372
C      0.490270    -0.331176    -0.173151
O      1.350274     0.305554     0.741346
H     -1.345762     0.747466    -0.733449
H     -1.628222    -0.821957     0.015372
H     -1.088386     0.535496     1.004344
H      0.806840    -0.123462    -1.198516
H      0.615292    -1.404803    -0.016344
H      1.775846     1.038371     0.330025
9
Iteration 3, Energy=-154.0861938558, |grad|=0.019303
C     -0.972940     0.053201     0.034639
C      0.490891    -0.333048    -0.171924
O      1.350322     0.306741     0.738365
H     -1.335240     0.752593    -0.724820
H     -1.626393    -0.821279     0.004225
H     -1.091206     0.535669     1.007862
H      0.804117    -0.134328    -1.200232
H      0.612077    -1.408864    -0.016150
H      1.768372     1.049314     0.328034
9
Iteration 4, Energy=-154.0863281009, |grad|=0.019805
C     -0.969211     0.053445     0.040207
C      0.491693    -0.339449    -0.169597
O      1.355035     0.312665     0.731446
H     -1.317962     0.762525    -0.711517
H     -1.623841    -0.820179    -0.013760
H     -1.095249     0.533216     1.014150
H      0.799524    -0.151887    -1.203281
H      0.607655    -1.413863    -0.014183
H      1.752356     1.063527     0.326535
9
Iteration 0, Energy=-154.0233734980, |grad|=0.535829
C     -1.005000     0.094681     0.010639
C      0.388172    -0.221760    -0.105019
O      1.307628     0.298878     0.653335
H     -1.328726     0.667583    -0.748664
H     -1.671809    -0.808737     0.107523
H     -1.040348     0.519658     0.987509
H      0.860095    -0.209912    -1.318353
H      0.613456    -1.345846     0.026039
H      1.879443     0.948677     0.384185
9
Iteration -1, Energy=-154.0863281009, |grad|=0.019805
C     -0.969211     0.053445     0.040207
C      0.491693    -0.339449    -0.169597
O      1.355035     0.312665     0.731446
H     -1.317962     0.762525    -0.711517
H     -1.623841    -0.820179    -0.013760
H     -1.095249     0.533216     1.014150
H      0.799524    -0.151887    -1.203281
H      0.607655    -1.413863    -0.014183
H      1.752356     1.063527     0.326535
9
Iteration 0, Energy=-154.0864181960, |grad|=0.026360
C     -0.973739     0.056865     0.038188
C      0.494543    -0.340611    -0.168995
O      1.355158     0.306477     0.732479
H     -1.317796     0.765164    -0.713003
H     -1.624087    -0.818925    -0.013094
H     -1.093940     0.527729     1.014485
H      0.798953    -0.151692    -1.203085
H      0.609709    -1.412197    -0.010183
H      1.751199     1.067189     0.323207
9
Iteration 1, Energy=-154.0865155175, |grad|=0.015555
C     -0.973881     0.057293     0.037266
C      0.493912    -0.340773    -0.168957
O      1.357492     0.307167     0.731519
H     -1.317993     0.766916    -0.714035
H     -1.624502    -0.818362    -0.012978
H     -1.093511     0.525440     1.015058
H      0.798879    -0.151702    -1.203036
H      0.610589    -1.411990    -0.008274
H      1.749015     1.066010     0.323436
9
Iteration 2, Energy=-154.0866646141, |grad|=0.011495
C     -0.974536     0.059362     0.033651
C      0.492651    -0.340910    -0.168521
O      1.364038     0.305325     0.729015
H     -1.318572     0.773902    -0.717738
H     -1.626277    -0.815959    -0.012843
H     -1.091780     0.515979     1.017321
H      0.798483    -0.152027    -1.202738
H      0.614096    -1.411021    -0.000242
H      1.741897     1.065348     0.322096
9
Iteration 3, Energy=-154.0867353348, |grad|=0.010806
C     -0.973285     0.060468     0.031431
C      0.492074    -0.341193    -0.168263
O      1.367653     0.302363     0.726813
H     -1.318528     0.779122    -0.719068
H     -1.628001    -0.813683    -0.014200
H     -1.090764     0.508984     1.019219
H      0.798318    -0.153245    -1.202371
H      0.615989    -1.410325     0.006137
H      1.736543     1.067510     0.320302
9
Iteration 4, Energy=-154.0868700267, |grad|=0.014273
C     -0.972566     0.063465     0.028121
C      0.494287    -0.344635    -0.168175
O      1.375511     0.297910     0.719619
H     -1.315762     0.789286    -0.716611
H     -1.631209    -0.806684    -0.021327
H     -1.088682     0.493734     1.023014
H      0.798302    -0.158928    -1.201944
H      0.617708    -1.408978     0.020301
H      1.722409     1.074830     0.317002
9
Iteration 0, Energy=-154.0288861050, |grad|=0.567559
C     -0.907581     0.011799    -0.027202
C      0.418050    -0.263270    -0.136140
O      1.282953     0.246014     0.803195
H     -1.290575     0.717597    -0.688289
H     -1.640572    -0.887628    -0.030312
H     -1.031837     0.540945     0.989974
H      0.697730    -0.232129    -1.238661
H      0.530638    -1.338504    -0.114784
H      1.787625     1.069062     0.348033
9
Iteration -1, Energy=-154.0868700267, |grad|=0.014273
C     -0.972566     0.063465     0.028121
C      0.494287    -0.344635    -0.168175
O      1.375511     0.297910     0.719619
H     -1.315762     0.789286    -0.716611
H     -1.631209    -0.806684    -0.021327
H     -1.088682     0.493734     1.023014
H      0.798302    -0.158928    -1.201944
H      0.617708    -1.408978     0.020301
H      1.722409     1.074830     0.317002
9
Iteration 0, Energy=-154.0869499029, |grad|=0.023998
C     -0.968993     0.061177     0.031068
C      0.493342    -0.343214    -0.168027
O      1.373605     0.296820     0.719891
H     -1.313116     0.789536    -0.711749
H     -1.631514    -0.806235    -0.026696
H     -1.089309     0.495670     1.023827
H      0.799216    -0.163435    -1.203842
H      0.615076    -1.412188     0.019855
H      1.721693     1.081869     0.315673
9
Iteration 1, Energy=-154.0870470516, |grad|=0.014857
C     -0.968112     0.060579     0.032380
C      0.493525    -0.344457    -0.168165
O      1.374200     0.299612     0.718543
H     -1.311215     0.789670    -0.708464
H     -1.631466    -0.805879    -0.030021
H     -1.089599     0.496555     1.024486
H      0.799602    -0.166283    -1.204701
H      0.613318    -1.413178     0.019466
H      1.719746     1.083381     0.316477
9
Iteration 2, Energy=-154.0871875099, |grad|=0.010650
C     -0.966246     0.059010     0.036431
C      0.495713    -0.348312    -0.168611
O      1.374861     0.305733     0.714565
H     -1.304411     0.791170    -0.697606
H     -1.631097    -0.804536    -0.041338
H     -1.090355     0.498555     1.027139
H      0.800426    -0.176559    -1.207021
H      0.607806    -1.416164     0.018845
H      1.713302     1.091103     0.317597
9
Iteration 3, Energy=-154.0872659718, |grad|=0.012421
C     -0.965389     0.058629     0.037743
C      0.496659    -0.349725    -0.168514
O      1.375982     0.307265     0.711926
H     -1.300358     0.795071    -0.693142
H     -1.630832    -0.803715    -0.047396
H     -1.090306     0.497026     1.029523
H      0.800216    -0.183171    -1.207667
H      0.606159    -1.417517     0.020266
H      1.707869     1.096137     0.317261
9
Iteration 4, Energy=-154.0879345582, |grad|=0.032345
C     -0.954722     0.062880     0.046477
C      0.500140    -0.367773    -0.163690
O      1.393081     0.317854     0.683295
H     -1.255817     0.842707    -0.647501
H     -1.628484    -0.793125    -0.110495
H     -1.088388     0.468120     1.054424
H      0.796905    -0.253316    -1.216482
H      0.594281    -1.429024     0.043693
H      1.643003     1.151677     0.310279
9
Iteration 0, Energy=-153.9790646571, |grad|=0.809040
C     -0.865664     0.123479     0.110167
C      0.398538    -0.232113    -0.272830
O      1.218182     0.382065     0.820558
H     -1.368101     0.703938    -0.657613
H     -1.541745    -0.798655     0.079909
H     -0.980779     0.499454     0.949714
H      0.817278    -0.212414    -1.161160
H      0.598933    -1.456857    -0.062353
H      1.882569     1.146850     0.436147
9
Iteration -1, Energy=-154.0879345582, |grad|=0.032345
C     -0.954722     0.062880     0.046477
C      0.500140    -0.367773    -0.163690
O      1.393081     0.317854     0.683295
H     -1.255817     0.842707    -0.647501
H     -1.628484    -0.793125    -0.110495
H     -1.088388     0.468120     1.054424
H      0.796905    -0.253316    -1.216482
H      0.594281    -1.429024     0.043693
H      1.643003     1.151677     0.310279
9
Iteration 0, Energy=-154.0882287152, |grad|=0.026992
C     -0.955042     0.058919     0.044642
C      0.499888    -0.360733    -0.166618
O      1.394771     0.314746     0.681468
H     -1.256325     0.846982    -0.650912
H     -1.626830    -0.787294    -0.108110
H     -1.088065     0.461721     1.053907
H      0.794944    -0.252255    -1.213839
H      0.597679    -1.430832     0.050250
H      1.638980     1.148746     0.309212
9
Iteration 1, Energy=-154.0884518122, |grad|=0.021363
C     -0.954425     0.061247     0.041988
C      0.499606    -0.361499    -0.166045
O      1.396366     0.312239     0.679577
H     -1.256471     0.849500    -0.652612
H     -1.626912    -0.784205    -0.106511
H     -1.087699     0.455006     1.053214
H      0.793591    -0.250600    -1.213385
H      0.600617    -1.428630     0.055618
H      1.635327     1.146943     0.308156
9
Iteration 2, Energy=-154.0886885192, |grad|=0.037733
C     -0.949261     0.069988     0.034862
C      0.499791    -0.367100    -0.167530
O      1.405068     0.299324     0.676932
H     -1.255072     0.863129    -0.658373
H     -1.632055    -0.775026    -0.106852
H     -1.086270     0.429078     1.055204
H      0.788476    -0.247342    -1.214059
H      0.609943    -1.421958     0.079466
H      1.619380     1.149906     0.300350
9
Iteration 3, Energy=-154.0888259896, |grad|=0.025512
C     -0.950662     0.071295     0.032129
C      0.500717    -0.369413    -0.164719
O      1.409283     0.305612     0.670332
H     -1.253285     0.865990    -0.657554
H     -1.632507    -0.771148    -0.108567
H     -1.085546     0.422696     1.056323
H      0.787878    -0.247726    -1.215650
H      0.611295    -1.421020     0.085080
H      1.612826     1.143714     0.302626
9
Iteration 4, Energy=-154.0889089519, |grad|=0.010397
C     -0.951083     0.069786     0.034125
C      0.501060    -0.368089    -0.164991
O      1.407199     0.304803     0.671862
H     -1.252947     0.864174    -0.656014
H     -1.632240    -0.772877    -0.109783
H     -1.085762     0.426912     1.056371
H      0.788738    -0.249177    -1.215591
H      0.609459    -1.422589     0.081614
H      1.615575     1.147057     0.302407
9
Iteration 0, Energy=-154.0026241341, |grad|=0.940170
C     -0.987446    -0.002233     0.093549
C      0.516310    -0.296105    -0.092500
O      1.207489     0.302553     0.653548
H     -1.265485     0.732010    -0.699740
H     -1.544483    -0.955039    -0.006425
H     -1.127640     0.574493     1.083158
H      0.740205    -0.172148    -1.320418
H      0.546382    -1.437068     0.011177
H      1.765924     1.139959     0.428676
9
Iteration -1, Energy=-154.0889089519, |grad|=0.010397
C     -0.951083     0.069786     0.034125
C      0.501060    -0.368089    -0.164991
O      1.407199     0.304803     0.671862
H     -1.252947     0.864174    -0.656014
H     -1.632240    -0.772877    -0.109783
H     -1.085762     0.426912     1.056371
H      0.788738    -0.249177    -1.215591
H      0.609459    -1.422589     0.081614
H      1.615575     1.147057     0.302407
9
Iteration 0, Energy=-154.0889789616, |grad|=0.022953
C     -0.951175     0.067619     0.036628
C      0.501645    -0.366182    -0.164979
O      1.406460     0.303759     0.668775
H     -1.248757     0.865263    -0.650395
H     -1.632442    -0.770739    -0.116483
H     -1.085485     0.426264     1.057394
H      0.789216    -0.255176    -1.215097
H      0.607631    -1.425150     0.082848
H      1.612908     1.154341     0.301308
9
Iteration 1, Energy=-154.0890799686, |grad|=0.016298
C     -0.950622     0.066903     0.037904
C      0.501357    -0.367366    -0.164720
O      1.407400     0.306531     0.665806
H     -1.245694     0.866364    -0.646220
H     -1.632887    -0.769578    -0.121505
H     -1.085383     0.425494     1.058562
H      0.789533    -0.259518    -1.215138
H      0.606237    -1.425909     0.083631
H      1.610058     1.157079     0.301681
9
Iteration 2, Energy=-154.0893279354, |grad|=0.015040
C     -0.946837     0.064367     0.042812
C      0.500718    -0.374148    -0.163542
O      1.411823     0.316111     0.653885
H     -1.231153     0.874117    -0.627317
H     -1.635413    -0.764325    -0.145274
H     -1.085197     0.419944     1.065353
H      0.790083    -0.280588    -1.215930
H      0.600491    -1.428371     0.088836
H      1.595486     1.172894     0.301179
9
Iteration 3, Energy=-154.0895194540, |grad|=0.020307
C     -0.944589     0.062727     0.044954
C      0.502229    -0.376885    -0.163430
O      1.416292     0.321893     0.645716
H     -1.220267     0.884667    -0.615524
H     -1.636463    -0.758938    -0.161663
H     -1.085310     0.411287     1.071139
H      0.788550    -0.296744    -1.217055
H      0.598500    -1.430909     0.096498
H      1.581058     1.182902     0.299365
9
Iteration 4, Energy=-154.0902686462, |grad|=0.035122
C     -0.930943     0.062666     0.052642
C      0.510630    -0.396736    -0.158150
O      1.440755     0.346467     0.600617
H     -1.159279     0.946921    -0.550861
H     -1.641367    -0.727735    -0.250054
H     -1.086309     0.353872     1.101761
H      0.778113    -0.385076    -1.225996
H      0.592104    -1.440291     0.144449
H      1.496295     1.239912     0.285592
9
Iteration 0, Energy=-154.0516522422, |grad|=0.372485
C     -0.944226     0.030911     0.096976
C      0.459957    -0.323523    -0.218238
O      1.350762     0.394783     0.706080
H     -1.294510     0.668954    -0.787460
H     -1.581419    -0.944065     0.120833
H     -1.150485     0.507270     1.104881
H      0.756386    -0.061501    -1.259380
H      0.513573    -1.526047    -0.007739
H      1.749019     1.120280     0.387315
9
Iteration -1, Energy=-154.0902686462, |grad|=0.035122
C     -0.930943     0.062666     0.052642
C      0.510630    -0.396736    -0.158150
O      1.440755     0.346467     0.600617
H     -1.159279     0.946921    -0.550861
H     -1.641367    -0.727735    -0.250054
H     -1.086309     0.353872     1.101761
H      0.778113    -0.385076    -1.225996
H      0.592104    -1.440291     0.144449
H      1.496295     1.239912     0.285592
9
Iteration 0, Energy=-154.0908939526, |grad|=0.027020
C     -0.933232     0.067181     0.047306
C      0.510518    -0.391851    -0.160443
O      1.436716     0.339868     0.595994
H     -1.158590     0.947621    -0.551236
H     -1.633798    -0.717626    -0.242212
H     -1.087198     0.341715     1.094880
H      0.774675    -0.381509    -1.221426
H      0.599723    -1.437524     0.153597
H      1.491186     1.232126     0.283540
9
Iteration 1, Energy=-154.0912333381, |grad|=0.015511
C     -0.926080     0.073231     0.043692
C      0.504732    -0.395801    -0.158627
O      1.435607     0.335098     0.593327
H     -1.159289     0.953370    -0.554476
H     -1.630182    -0.710925    -0.235930
H     -1.088985     0.327343     1.089327
H      0.771489    -0.376780    -1.221184
H      0.608039    -1.429416     0.163406
H      1.484668     1.223881     0.280465
9
Iteration 2, Energy=-154.0913111146, |grad|=0.016609
C     -0.924448     0.073822     0.041918
C      0.506836    -0.395474    -0.160338
O      1.437163     0.330947     0.595295
H     -1.158840     0.959375    -0.557004
H     -1.631017    -0.709660    -0.235817
H     -1.090097     0.321346     1.091473
H      0.769013    -0.375679    -1.222102
H      0.610782    -1.428523     0.169787
H      1.480608     1.223847     0.276789
9
Iteration 3, Energy=-154.0913631954, |grad|=0.007699
C     -0.925039     0.074586     0.041549
C      0.508577    -0.396338    -0.160122
O      1.438637     0.333040     0.595176
H     -1.157998     0.961579    -0.557243
H     -1.632048    -0.709726    -0.237197
H     -1.090348     0.319246     1.093022
H      0.768261    -0.375770    -1.223462
H      0.611109    -1.428654     0.172122
H      1.478849     1.222036     0.276156
9
Iteration 4, Energy=-154.0913906250, |grad|=0.007264
C     -0.925764     0.075410     0.041692
C      0.509873    -0.397021    -0.159112
O      1.439982     0.334168     0.594717
H     -1.156555     0.963415    -0.556566
H     -1.633097    -0.709472    -0.239492
H     -1.090497     0.316915     1.094215
H      0.767779    -0.376344    -1.224978
H      0.611281    -1.428923     0.174544
H      1.476999     1.221852     0.274979
9
Iteration 0, Energy=-153.9728903695, |grad|=1.135419
C     -0.873905    -0.013351     0.033506
C      0.473841    -0.266760    -0.157624
O      1.272977     0.394870     0.644680
H     -1.296627     0.651564    -0.825683
H     -1.657298    -0.956679    -0.018570
H     -1.044444     0.693212     0.920346
H      0.801861    -0.173801    -1.313756
H      0.501642    -1.377992    -0.136052
H      1.760618     0.959446     0.453595
9
Iteration -1, Energy=-154.0913906250, |grad|=0.007264
C     -0.925764     0.075410     0.041692
C      0.509873    -0.397021    -0.159112
O      1.439982     0.334168     0.594717
H     -1.156555     0.963415    -0.556566
H     -1.633097    -0.709472    -0.239492
H     -1.090497     0.316915     1.094215
H      0.767779    -0.376344    -1.224978
H      0.611281    -1.428923     0.174544
H      1.476999     1.221852     0.274979
9
Iteration 0, Energy=-154.0914223721, |grad|=0.016537
C     -0.925512     0.074006     0.043306
C      0.507270    -0.396375    -0.158457
O      1.440202     0.333119     0.592075
H     -1.153180     0.963134    -0.551954
H     -1.632666    -0.706509    -0.244295
H     -1.090637     0.314645     1.093524
H      0.768164    -0.379115    -1.223442
H      0.610880    -1.429494     0.176399
H      1.475479     1.226588     0.272845
9
Iteration 1, Energy=-154.0914682519, |grad|=0.010123
C     -0.925383     0.073590     0.043722
C      0.506650    -0.397213    -0.158079
O      1.440525     0.335323     0.589904
H     -1.151270     0.963383    -0.549392
H     -1.632689    -0.705111    -0.247164
H     -1.090890     0.313242     1.093838
H      0.768125    -0.380740    -1.222661
H      0.610502    -1.429406     0.177405
H      1.474429     1.226931     0.272427
9
Iteration 2, Energy=-154.0915478200, |grad|=0.012005
C     -0.924740     0.072058     0.045060
C      0.505831    -0.399422    -0.156831
O      1.441327     0.340472     0.583282
H     -1.144579     0.965303    -0.540778
H     -1.633159    -0.700525    -0.257405
H     -1.092024     0.307969     1.095642
H      0.767594    -0.386736    -1.220223
H      0.609334    -1.429281     0.181429
H      1.470416     1.230162     0.269824
9
Iteration 3, Energy=-154.0916355192, |grad|=0.016723
C     -0.923616     0.070309     0.046588
C      0.506387    -0.401682    -0.155424
O      1.442517     0.345581     0.576380
H     -1.136330     0.969761    -0.530830
H     -1.634284    -0.695349    -0.270260
H     -1.093903     0.300493     1.098874
H      0.766289    -0.394699    -1.218190
H      0.608294    -1.429363     0.187317
H      1.464648     1.234948     0.265544
9
Iteration 4, Energy=-154.0918804800, |grad|=0.023599
C     -0.920526     0.066664     0.050879
C      0.508543    -0.407814    -0.150843
O      1.447672     0.360003     0.558048
H     -1.110604     0.987488    -0.500843
H     -1.637172    -0.678949    -0.309264
H     -1.100735     0.273690     1.108883
H      0.761173    -0.420669    -1.215171
H      0.607219    -1.430027     0.208118
H      1.444430     1.249615     0.250191
9
Iteration 0, Energy=-154.0032220312, |grad|=0.761512
C     -0.858593     0.122130     0.017464
C      0.418118    -0.256762    -0.100554
O      1.235131     0.297080     0.678204
H     -1.419474     0.775462    -0.793239
H     -1.577005    -0.914316     0.000726
H     -1.155885     0.516133     1.053357
H      0.708909    -0.171601    -1.188072
H      0.511910    -1.345413    -0.142987
H      1.782522     1.010707     0.309458
9
Iteration -1, Energy=-154.0918804800, |grad|=0.023599
C     -0.920526     0.066664     0.050879
C      0.508543    -0.407814    -0.150843
O      1.447672     0.360003     0.558048
H     -1.110604     0.987488    -0.500843
H     -1.637172    -0.678949    -0.309264
H     -1.100735     0.273690     1.108883
H      0.761173    -0.420669    -1.215171
H      0.607219    -1.430027     0.208118
H      1.444430     1.249615     0.250191
9
Iteration 0, Energy=-154.0919655475, |grad|=0.018392
C     -0.920668     0.067471     0.050497
C      0.509466    -0.405858    -0.151157
O      1.447449     0.354767     0.560641
H     -1.110778     0.989854    -0.501539
H     -1.636345    -0.678328    -0.308027
H     -1.101478     0.271399     1.108441
H      0.760368    -0.421364    -1.216509
H      0.608922    -1.430272     0.209891
H      1.443064     1.252332     0.247761
9
Iteration 1, Energy=-154.0920162391, |grad|=0.012822
C     -0.920519     0.068365     0.050103
C      0.509630    -0.406128    -0.151242
O      1.447571     0.355560     0.561088
H     -1.110898     0.991192    -0.501804
H     -1.635899    -0.678034    -0.307374
H     -1.101975     0.269956     1.108252
H      0.759909    -0.421716    -1.217278
H      0.609825    -1.429933     0.210717
H      1.442357     1.250737     0.247537
9
Iteration 2, Energy=-154.0921305251, |grad|=0.006788
C     -0.919334     0.073102     0.047828
C      0.510904    -0.406817    -0.151620
O      1.447490     0.356195     0.563792
H     -1.111442     0.998607    -0.502908
H     -1.633454    -0.676234    -0.304077
H     -1.104811     0.261859     1.107288
H      0.757374    -0.423821    -1.220910
H      0.614910    -1.427953     0.215495
H      1.438363     1.245061     0.245113
9
Iteration 3, Energy=-154.0921535091, |grad|=0.004914
C     -0.918131     0.074295     0.047086
C      0.511057    -0.407189    -0.151788
O      1.446644     0.355414     0.563276
H     -1.111176     1.001420    -0.502027
H     -1.632466    -0.674906    -0.304091
H     -1.106052     0.258399     1.106929
H      0.756616    -0.425086    -1.220615
H      0.616687    -1.426657     0.217602
H      1.436820     1.244310     0.243629
9
Iteration 4, Energy=-154.0921869467, |grad|=0.005945
C     -0.917679     0.075444     0.046422
C      0.510520    -0.406914    -0.151401
O      1.446229     0.355150     0.561198
H     -1.109340     1.006018    -0.498128
H     -1.630605    -0.671454    -0.306701
H     -1.108044     0.251698     1.106258
H      0.755917    -0.428574    -1.220121
H      0.619193    -1.425472     0.222232
H      1.433809     1.244106     0.240242
9
Iteration 0, Energy=-154.0516460191, |grad|=0.389001
C     -1.021384    -0.003457     0.002626
C      0.532927    -0.339616    -0.235805
O      1.257476     0.402928     0.660464
H     -1.415540     0.641891    -0.807653
H     -1.505300    -0.910209    -0.016854
H     -1.033881     0.604125     0.937609
H      0.754766    -0.068370    -1.177490
H      0.586444    -1.373220    -0.139494
H      1.799610     1.093851     0.487704
9
Iteration -1, Energy=-154.0921869467, |grad|=0.005945
C     -0.917679     0.075444     0.046422
C      0.510520    -0.406914    -0.151401
O      1.446229     0.355150     0.561198
H     -1.109340     1.006018    -0.498128
H     -1.630605    -0.671454    -0.306701
H     -1.108044     0.251698     1.106258
H      0.755917    -0.428574    -1.220121
H      0.619193    -1.425472     0.222232
H      1.433809     1.244106     0.240242
9
Iteration 0, Energy=-154.0922042526, |grad|=0.008397
C     -0.917227     0.075589     0.047145
C      0.510715    -0.408954    -0.151079
O      1.447089     0.357086     0.560208
H     -1.108316     1.005871    -0.496100
H     -1.631910    -0.671735    -0.309939
H     -1.108223     0.251453     1.107308
H      0.756138    -0.429584    -1.219645
H      0.617968    -1.424999     0.222409
H      1.433767     1.245274     0.239692
9
Iteration 1, Energy=-154.0922236261, |grad|=0.006312
C     -0.917371     0.074554     0.047635
C      0.510987    -0.408882    -0.150871
O      1.447635     0.357661     0.559337
H     -1.107262     1.006084    -0.494296
H     -1.632527    -0.671258    -0.312635
H     -1.108401     0.251059     1.108187
H      0.756312    -0.430721    -1.219209
H      0.617057    -1.425415     0.223057
H      1.433570     1.246919     0.238795
9
Iteration 2, Energy=-154.0922594988, |grad|=0.007183
C     -0.918537     0.070910     0.049219
C      0.511544    -0.408146    -0.149548
O      1.449357     0.361762     0.554956
H     -1.102910     1.007146    -0.486927
H     -1.633760    -0.668245    -0.322453
H     -1.109287     0.248258     1.110710
H      0.756871    -0.435474    -1.217877
H      0.614250    -1.427039     0.226184
H      1.432472     1.250828     0.235736
9
Iteration 3, Energy=-154.0922843093, |grad|=0.009941
C     -0.918420     0.070867     0.050107
C      0.511334    -0.408869    -0.148564
O      1.449781     0.362241     0.552617
H     -1.099780     1.008457    -0.481447
H     -1.633775    -0.665557    -0.328472
H     -1.110550     0.244063     1.111288
H      0.756734    -0.439126    -1.216965
H      0.613734    -1.426605     0.229126
H      1.430943     1.254528     0.232311
9
Iteration 4, Energy=-154.0923184009, |grad|=0.010952
C     -0.918005     0.070831     0.050565
C      0.510838    -0.409409    -0.147964
O      1.449927     0.363773     0.550176
H     -1.096866     1.010653    -0.476502
H     -1.633119    -0.662413    -0.333476
H     -1.112135     0.239083     1.111605
H      0.756248    -0.442765    -1.216093
H      0.613967    -1.425986     0.232469
H      1.429144     1.256233     0.229220
9
Iteration 0, Energy=-154.0306663298, |grad|=0.435388
C     -1.026538    -0.019406     0.023372
C      0.403046    -0.238717    -0.173884
O      1.360514     0.293529     0.807033
H     -1.265518     0.725991    -0.655433
H     -1.650592    -0.921221    -0.031354
H     -1.138553     0.570413     0.995975
H      0.734716    -0.046688    -1.308991
H      0.574076    -1.524817    -0.007801
H      1.814333     1.133878     0.417996
9
Iteration -1, Energy=-154.0923184009, |grad|=0.010952
C     -0.918005     0.070831     0.050565
C      0.510838    -0.409409    -0.147964
O      1.449927     0.363773     0.550176
H     -1.096866     1.010653    -0.476502
H     -1.633119    -0.662413    -0.333476
H     -1.112135     0.239083     1.111605
H      0.756248    -0.442765    -1.216093
H      0.613967    -1.425986     0.232469
H      1.429144     1.256233     0.229220
9
Iteration 0, Energy=-154.0923372532, |grad|=0.006217
C     -0.917660     0.070938     0.050276
C      0.510809    -0.409729    -0.148141
O      1.449828     0.365252     0.549865
H     -1.096863     1.011556    -0.476620
H     -1.632838    -0.662132    -0.333224
H     -1.112493     0.238272     1.111666
H      0.755937    -0.442962    -1.216136
H      0.614415    -1.425686     0.232887
H      1.428866     1.254492     0.229427
9
Iteration 1, Energy=-154.0923491176, |grad|=0.006308
C     -0.917286     0.071279     0.049958
C      0.510952    -0.409788    -0.148250
O      1.449563     0.365372     0.549916
H     -1.096796     1.012674    -0.476678
H     -1.632484    -0.661766    -0.332944
H     -1.112963     0.237099     1.111643
H      0.755524    -0.443282    -1.216245
H      0.615097    -1.425321     0.233546
H      1.428393     1.253733     0.229055
9
Iteration 2, Energy=-154.0923856962, |grad|=0.005566
C     -0.915978     0.073966     0.048799
C      0.511432    -0.410217    -0.148302
O      1.448504     0.364896     0.550441
H     -1.096023     1.017708    -0.476147
H     -1.630757    -0.659853    -0.332191
H     -1.115231     0.230787     1.110988
H      0.753623    -0.445163    -1.217085
H      0.618568    -1.423497     0.237077
H      1.425861     1.251371     0.226420
9
Iteration 3, Energy=-154.0923992559, |grad|=0.009745
C     -0.916032     0.073243     0.048362
C      0.510782    -0.409065    -0.148288
O      1.448809     0.365228     0.549720
H     -1.094027     1.021402    -0.473350
H     -1.629405    -0.656925    -0.334538
H     -1.117003     0.225877     1.111006
H      0.752677    -0.447735    -1.216869
H      0.620327    -1.423431     0.240695
H      1.423871     1.251407     0.223263
9
Iteration 4, Energy=-154.0924205635, |grad|=0.006983
C     -0.915826     0.074297     0.048429
C      0.510876    -0.409776    -0.147642
O      1.448773     0.365533     0.548931
H     -1.092586     1.023185    -0.470990
H     -1.629110    -0.655567    -0.336745
H     -1.118154     0.222576     1.110920
H      0.752121    -0.449419    -1.216773
H      0.621230    -1.422663     0.242744
H      1.422677     1.251835     0.221126
9
Iteration 0, Energy=-154.0266760065, |grad|=0.459620
C     -0.986456     0.145440     0.058193
C      0.450098    -0.225666    -0.102215
O      1.277402     0.403326     0.710279
H     -1.419273     0.805305    -0.728253
H     -1.612308    -0.961533     0.009572
H     -0.990475     0.670613     1.013227
H      0.848585    -0.217025    -1.311237
H      0.528247    -1.381117    -0.133476
H      1.925031     1.087568     0.381966
9
Iteration -1, Energy=-154.0924205635, |grad|=0.006983
C     -0.915826     0.074297     0.048429
C      0.510876    -0.409776    -0.147642
O      1.448773     0.365533     0.548931
H     -1.092586     1.023185    -0.470990
H     -1.629110    -0.655567    -0.336745
H     -1.118154     0.222576     1.110920
H      0.752121    -0.449419    -1.216773
H      0.621230    -1.422663     0.242744
H      1.422677     1.251835     0.221126
9
Iteration 0, Energy=-154.0924295019, |grad|=0.006907
C     -0.915491     0.075679     0.049065
C      0.511544    -0.411556    -0.146909
O      1.448609     0.366345     0.548037
H     -1.092095     1.022386    -0.469724
H     -1.630035    -0.656046    -0.338473
H     -1.118241     0.222437     1.111074
H      0.752264    -0.449720    -1.216507
H      0.620583    -1.421950     0.242516
H      1.422861     1.252425     0.220921
9
Iteration 1, Energy=-154.0924368396, |grad|=0.004141
C     -0.915562     0.074941     0.049098
C      0.511466    -0.411067    -0.147040
O      1.448735     0.366326     0.547897
H     -1.091879     1.022532    -0.469399
H     -1.630007    -0.655730    -0.338945
H     -1.118318     0.222408     1.111294
H      0.752299    -0.449958    -1.216315
H      0.620426    -1.422271     0.242742
H      1.422840     1.252819     0.220668
9
Iteration 2, Energy=-154.0924501024, |grad|=0.003685
C     -0.915725     0.073275     0.049489
C      0.511418    -0.410560    -0.146977
O      1.449160     0.367148     0.546872
H     -1.090837     1.022634    -0.467542
H     -1.630300    -0.654809    -0.341455
H     -1.118656     0.222073     1.112068
H      0.752496    -0.450978    -1.215641
H      0.619608    -1.422888     0.243424
H      1.422836     1.254106     0.219762
9
Iteration 3, Energy=-154.0924626922, |grad|=0.004974
C     -0.915975     0.071854     0.050175
C      0.511393    -0.410632    -0.146482
O      1.449734     0.368580     0.545282
H     -1.089135     1.022691    -0.464436
H     -1.630770    -0.653496    -0.345382
H     -1.119263     0.221038     1.112967
H      0.752745    -0.452637    -1.214861
H      0.618552    -1.423317     0.244503
H      1.422719     1.255919     0.218233
9
Iteration 4, Energy=-154.0924867717, |grad|=0.006751
C     -0.916084     0.070561     0.051168
C      0.511195    -0.410972    -0.145711
O      1.450431     0.371713     0.542435
H     -1.085669     1.024438    -0.458416
H     -1.630856    -0.650306    -0.352278
H     -1.121199     0.216623     1.114101
H      0.752550    -0.456448    -1.213671
H      0.617947    -1.423430     0.247765
H      1.421685     1.257822     0.214607
9
Iteration 0, Energy=-154.0063289158, |grad|=0.819170
C     -0.916094     0.073263     0.033846
C      0.507400    -0.239524    -0.129402
O      1.281255     0.243619     0.661935
H     -1.289453     0.751116    -0.682601
H     -1.574721    -0.931308     0.046763
H     -1.000941     0.510538     0.925907
H      0.873806    -0.144196    -1.305246
H      0.667745    -1.438680     0.027183
H      1.857234     1.008402     0.428972
9
Iteration -1, Energy=-154.0924867717, |grad|=0.006751
C     -0.916084     0.070561     0.051168
C      0.511195    -0.410972    -0.145711
O      1.450431     0.371713     0.542435
H     -1.085669     1.024438    -0.458416
H     -1.630856    -0.650306    -0.352278
H     -1.121199     0.216623     1.114101
H      0.752550    -0.456448    -1.213671
H      0.617947    -1.423430     0.247765
H      1.421685     1.257822     0.214607
9
Iteration 0, Energy=-154.0924961390, |grad|=0.004286
C     -0.915879     0.072070     0.051098
C      0.511542    -0.412075    -0.145038
O      1.450084     0.371168     0.542512
H     -1.085550     1.024664    -0.458099
H     -1.630872    -0.650394    -0.352354
H     -1.121462     0.215670     1.113846
H      0.752357    -0.456631    -1.213987
H      0.618359    -1.422532     0.247939
H      1.421422     1.258060     0.214084
9
Iteration 1, Energy=-154.0925013281, |grad|=0.003856
C     -0.915730     0.072401     0.050998
C      0.511548    -0.412127    -0.145057
O      1.449961     0.371232     0.542527
H     -1.085422     1.025293    -0.457956
H     -1.630657    -0.650137    -0.352333
H     -1.121755     0.214828     1.113728
H      0.752133    -0.456900    -1.214036
H      0.618779    -1.422298     0.248394
H      1.421144     1.257708     0.213736
9
Iteration 2, Energy=-154.0925097139, |grad|=0.012226
C     -0.914686     0.074488     0.049491
C      0.511610    -0.411303    -0.144857
O      1.448864     0.369721     0.542896
H     -1.083423     1.032376    -0.455340
H     -1.628100    -0.646426    -0.353215
H     -1.125148     0.205375     1.113018
H      0.749814    -0.460418    -1.214476
H      0.623144    -1.420382     0.254027
H      1.417925     1.256569     0.208455
9
Iteration 3, Energy=-154.0925297331, |grad|=0.004657
C     -0.914677     0.074775     0.049903
C      0.511469    -0.412284    -0.144705
O      1.449148     0.372154     0.541974
H     -1.083024     1.032305    -0.454461
H     -1.628359    -0.646301    -0.354319
H     -1.125301     0.204971     1.113011
H      0.749870    -0.460752    -1.214297
H      0.622869    -1.420170     0.254203
H      1.418005     1.255303     0.208691
9
Iteration 4, Energy=-154.0925344542, |grad|=0.003692
C     -0.914799     0.074405     0.050181
C      0.511491    -0.412297    -0.144659
O      1.449329     0.372278     0.541738
H     -1.082891     1.031785    -0.454089
H     -1.628664    -0.646375    -0.354972
H     -1.125156     0.205481     1.113173
H      0.750082    -0.460753    -1.214090
H      0.622381    -1.420398     0.254012
H      1.418226     1.255874     0.208705
9
Iteration 0, Energy=-154.0534028704, |grad|=0.349132
C     -0.927433     0.020955     0.048711
C      0.536581    -0.310966    -0.173281
O      1.274935     0.309066     0.712842
H     -1.318709     0.766781    -0.676874
H     -1.655768    -0.857767    -0.063087
H     -0.989004     0.684228     0.955752
H      0.861726    -0.044692    -1.303015
H      0.533609    -1.468341     0.025696
H      1.798280     1.016494     0.334386
9
Iteration -1, Energy=-154.0925344542, |grad|=0.003692
C     -0.914799     0.074405     0.050181
C      0.511491    -0.412297    -0.144659
O      1.449329     0.372278     0.541738
H     -1.082891     1.031785    -0.454089
H     -1.628664    -0.646375    -0.354972
H     -1.125156     0.205481     1.113173
H      0.750082    -0.460753    -1.214090
H      0.622381    -1.420398     0.254012
H      1.418226     1.255874     0.208705
9
Iteration 0, Energy=-154.0925383210, |grad|=0.007832
C     -0.914894     0.073602     0.050570
C      0.511706    -0.412016    -0.144405
O      1.449502     0.371579     0.541272
H     -1.082199     1.031469    -0.452616
H     -1.629095    -0.645940    -0.356936
H     -1.125341     0.205410     1.113650
H      0.750294    -0.461340    -1.213555
H      0.621712    -1.420714     0.254386
H      1.418315     1.257950     0.207635
9
Iteration 1, Energy=-154.0925454071, |grad|=0.004221
C     -0.914934     0.073416     0.050687
C      0.511650    -0.412228    -0.144316
O      1.449634     0.372408     0.540857
H     -1.081969     1.031409    -0.452123
H     -1.629193    -0.645771    -0.357561
H     -1.125423     0.205307     1.113781
H      0.750357    -0.461540    -1.213423
H      0.621501    -1.420738     0.254490
H      1.418377     1.257738     0.207607
9
Iteration 2, Energy=-154.0925551319, |grad|=0.002713
C     -0.915125     0.072458     0.051244
C      0.511608    -0.412641    -0.143887
O      1.450101     0.374270     0.539433
H     -1.080851     1.031161    -0.449774
H     -1.629661    -0.644939    -0.360537
H     -1.125832     0.204779     1.114409
H      0.750630    -0.462541    -1.212761
H      0.620583    -1.420964     0.255117
H      1.418547     1.258416     0.206757
9
Iteration 3, Energy=-154.0925603090, |grad|=0.003471
C     -0.915284     0.071804     0.051666
C      0.511593    -0.412839    -0.143510
O      1.450410     0.375290     0.538432
H     -1.079820     1.031250    -0.447703
H     -1.629897    -0.644056    -0.363022
H     -1.126336     0.203875     1.114863
H      0.750758    -0.463558    -1.212271
H      0.620047    -1.421081     0.255909
H      1.418528     1.259317     0.205636
9
Iteration 4, Energy=-154.0925836738, |grad|=0.006223
C     -0.915185     0.071015     0.052570
C      0.511572    -0.413495    -0.142376
O      1.450790     0.378564     0.535451
H     -1.076106     1.033818    -0.440671
H     -1.629773    -0.640286    -0.370702
H     -1.129124     0.197836     1.115962
H      0.750357    -0.467841    -1.210968
H      0.619913    -1.420621     0.260031
H      1.417555     1.261010     0.200702
9
Iteration 0, Energy=-154.0381451025, |grad|=0.462325
C     -0.879050     0.140720    -0.002755
C      0.479555    -0.395934    -0.230741
O      1.266382     0.373231     0.772515
H     -1.323273     0.791643    -0.659172
H     -1.607308    -0.894225    -0.024613
H     -1.120717     0.500480     1.079218
H      0.725616    -0.057076    -1.248066
H      0.591452    -1.395584     0.005559
H      1.763139     1.142604     0.360833
9
Iteration -1, Energy=-154.0925836738, |grad|=0.006223
C     -0.915185     0.071015     0.052570
C      0.511572    -0.413495    -0.142376
O      1.450790     0.378564     0.535451
H     -1.076106     1.033818    -0.440671
H     -1.629773    -0.640286    -0.370702
H     -1.129124     0.197836     1.115962
H      0.750357    -0.467841    -1.210968
H      0.619913    -1.420621     0.260031
H      1.417555     1.261010     0.200702
9
Iteration 0, Energy=-154.0925881793, |grad|=0.006548
C     -0.915163     0.071283     0.052397
C      0.511770    -0.413102    -0.142319
O      1.450521     0.376807     0.536038
H     -1.076029     1.034504    -0.440658
H     -1.629453    -0.639991    -0.370453
H     -1.129411     0.196973     1.115784
H      0.750110    -0.468091    -1.211084
H      0.620454    -1.420401     0.260515
H      1.417201     1.262018     0.199778
9
Iteration 1, Energy=-154.0925927799, |grad|=0.003495
C     -0.915108     0.071421     0.052360
C      0.511703    -0.413257    -0.142330
O      1.450520     0.377372     0.535912
H     -1.076004     1.034694    -0.440624
H     -1.629383    -0.639925    -0.370425
H     -1.129504     0.196711     1.115739
H      0.750044    -0.468158    -1.211111
H      0.620575    -1.420302     0.260622
H      1.417157     1.261444     0.199857
9
Iteration 2, Energy=-154.0925983397, |grad|=0.002617
C     -0.914943     0.071911     0.052180
C      0.511647    -0.413399    -0.142328
O      1.450372     0.377796     0.535909
H     -1.075878     1.035544    -0.440487
H     -1.629054    -0.639594    -0.370279
H     -1.129906     0.195562     1.115540
H      0.749744    -0.468483    -1.211223
H      0.621167    -1.419949     0.261180
H      1.416851     1.260612     0.199508
9
Iteration 3, Energy=-154.0926044063, |grad|=0.003295
C     -0.914635     0.072787     0.051852
C      0.511623    -0.413478    -0.142290
O      1.450053     0.377922     0.536044
H     -1.075571     1.037200    -0.440093
H     -1.628444    -0.638903    -0.370155
H     -1.130717     0.193289     1.115187
H      0.749165    -0.469175    -1.211395
H      0.622303    -1.419314     0.262350
H      1.416222     1.259672     0.198499
9
Iteration 4, Energy=-154.0926110889, |grad|=0.002920
C     -0.914383     0.073373     0.051680
C      0.511674    -0.413536    -0.142055
O      1.449840     0.378105     0.535838
H     -1.074833     1.038980    -0.438751
H     -1.627979    -0.637844    -0.371166
H     -1.131783     0.190544     1.115022
H      0.748611    -0.470277    -1.211307
H      0.623260    -1.418720     0.263959
H      1.415591     1.259375     0.196779
9
Iteration 0, Energy=-153.9921973155, |grad|=0.979002
C     -0.978682    -0.045868     0.075761
C      0.573828    -0.278839    -0.220622
O      1.316298     0.330709     0.675655
H     -1.360234     0.705372    -0.655032
H     -1.556888    -0.777966     0.030468
H     -1.076168     0.579887     1.100258
H      0.763300    -0.190235    -1.176402
H      0.624917    -1.473649    -0.140771
H      1.735826     0.967433     0.415668
9
Iteration -1, Energy=-154.0926110889, |grad|=0.002920
C     -0.914383     0.073373     0.051680
C      0.511674    -0.413536    -0.142055
O      1.449840     0.378105     0.535838
H     -1.074833     1.038980    -0.438751
H     -1.627979    -0.637844    -0.371166
H     -1.131783     0.190544     1.115022
H      0.748611    -0.470277    -1.211307
H      0.623260    -1.418720     0.263959
H      1.415591     1.259375     0.196779
9
Iteration 0, Energy=-154.0926128906, |grad|=0.002800
C     -0.914458     0.073171     0.051760
C      0.511740    -0.413409    -0.141965
O      1.449874     0.377676     0.535810
H     -1.074649     1.038949    -0.438348
H     -1.628038    -0.637678    -0.371657
H     -1.131862     0.190436     1.115115
H      0.748652    -0.470440    -1.211188
H      0.623143    -1.418785     0.264118
H      1.415597     1.260080     0.196355
9
Iteration 1, Energy=-154.0926200297, |grad|=0.002077
C     -0.914681     0.072433     0.052156
C      0.511726    -0.413604    -0.141585
O      1.450204     0.378660     0.534850
H     -1.073777     1.038868    -0.436383
H     -1.628328    -0.636915    -0.374041
H     -1.132297     0.189786     1.115548
H      0.748833    -0.471220    -1.210651
H      0.622549    -1.418926     0.264798
H      1.415769     1.260918     0.195308
9
Iteration 2, Energy=-154.0926365388, |grad|=0.003247
C     -0.914521     0.071277     0.053274
C      0.511711    -0.413928    -0.140523
O      1.450636     0.381583     0.532003
H     -1.070675     1.040248    -0.429699
H     -1.628802    -0.633917    -0.381663
H     -1.134709     0.185260     1.116695
H      0.748806    -0.474575    -1.209054
H      0.621825    -1.418849     0.268212
H      1.415728     1.262901     0.190756
9
Iteration 3, Energy=-154.0926465311, |grad|=0.009798
C     -0.916443     0.068277     0.054203
C      0.512156    -0.415999    -0.137447
O      1.451474     0.387072     0.527034
H     -1.064383     1.044981    -0.416608
H     -1.627581    -0.626113    -0.395252
H     -1.140009     0.174301     1.118558
H      0.748244    -0.481687    -1.206715
H      0.621434    -1.417102     0.275441
H      1.415108     1.266267     0.180785
9
Iteration 4, Energy=-154.0926706530, |grad|=0.004972
C     -0.915263     0.069145     0.055058
C      0.511837    -0.415538    -0.137266
O      1.451298     0.388695     0.525608
H     -1.062118     1.047269    -0.411931
H     -1.627633    -0.623896    -0.400127
H     -1.142477     0.169008     1.118719
H      0.747636    -0.484623    -1.205711
H      0.622244    -1.416816     0.278942
H      1.414475     1.266757     0.176707
9
Iteration 0, Energy=-154.0445534929, |grad|=0.466181
C     -0.989549     0.012477     0.103309
C      0.437927    -0.366904    -0.134035
O      1.314405     0.404893     0.787154
H     -1.300200     0.645845    -0.770409
H     -1.636704    -0.831820     0.113375
H     -1.039849     0.679573     1.100875
H      0.880774    -0.094526    -1.263808
H      0.587956    -1.337157    -0.079633
H      1.837153     1.019647     0.373746
9
Iteration -1, Energy=-154.0926706530, |grad|=0.004972
C     -0.915263     0.069145     0.055058
C      0.511837    -0.415538    -0.137266
O      1.451298     0.388695     0.525608
H     -1.062118     1.047269    -0.411931
H     -1.627633    -0.623896    -0.400127
H     -1.142477     0.169008     1.118719
H      0.747636    -0.484623    -1.205711
H      0.622244    -1.416816     0.278942
H      1.414475     1.266757     0.176707
9
Iteration 0, Energy=-154.0926800908, |grad|=0.005374
C     -0.914468     0.070375     0.054777
C      0.511829    -0.414877    -0.137409
O      1.450735     0.387384     0.526240
H     -1.062247     1.048170    -0.412207
H     -1.627388    -0.623906    -0.399319
H     -1.142953     0.167668     1.118225
H      0.747190    -0.484842    -1.205883
H      0.623283    -1.416539     0.279564
H      1.414020     1.266566     0.176011
9
Iteration 1, Energy=-154.0926886263, |grad|=0.003139
C     -0.914036     0.071339     0.054385
C      0.511801    -0.414853    -0.137473
O      1.450305     0.387346     0.526593
H     -1.062393     1.049369    -0.412536
H     -1.626864    -0.623673    -0.398342
H     -1.143463     0.166183     1.117695
H      0.746702    -0.485055    -1.206116
H      0.624335    -1.415965     0.280125
H      1.413612     1.265308     0.175668
9
Iteration 2, Energy=-154.0926909806, |grad|=0.003230
C     -0.914468     0.071667     0.053863
C      0.511974    -0.415346    -0.137421
O      1.450098     0.387070     0.527290
H     -1.062485     1.051314    -0.412820
H     -1.625790    -0.622872    -0.397214
H     -1.144118     0.164203     1.117061
H      0.746099    -0.485373    -1.206423
H      0.625555    -1.414957     0.280868
H      1.413134     1.264295     0.174796
9
Iteration 3, Energy=-154.0926927252, |grad|=0.001130
C     -0.914103     0.072024     0.053986
C      0.511807    -0.415150    -0.137438
O      1.450134     0.387501     0.527070
H     -1.062409     1.051078    -0.412548
H     -1.626124    -0.623091    -0.397651
H     -1.144174     0.164174     1.117144
H      0.746155    -0.485421    -1.206363
H      0.625497    -1.415192     0.280988
H      1.413217     1.264076     0.174813
9
Iteration 4, Energy=-154.0926930556, |grad|=0.000957
C     -0.914132     0.071952     0.054010
C      0.511829    -0.415127    -0.137379
O      1.450157     0.387533     0.526992
H     -1.062356     1.051039    -0.412385
H     -1.626182    -0.623062    -0.397876
H     -1.144205     0.164163     1.117212
H      0.746187    -0.485451    -1.206317
H      0.625428    -1.415234     0.281036
H      1.413273     1.264187     0.174707
9
Iteration 0, Energy=-154.0201471149, |grad|=0.599886
C     -0.999070     0.138258     0.141932
C      0.564226    -0.280013    -0.103977
O      1.273132     0.333131     0.792025
H     -1.299767     0.723110    -0.647066
H     -1.570994    -0.937225    -0.042101
H     -1.106099     0.571093     1.054517
H      0.714569    -0.062395    -1.262123
H      0.626789    -1.509394    -0.082967
H      1.857659     1.096415     0.367320
9
Iteration -1, Energy=-154.0926930556, |grad|=0.000957
C     -0.914132     0.071952     0.054010
C      0.511829    -0.415127    -0.137379
O      1.450157     0.387533     0.526992
H     -1.062356     1.051039    -0.412385
H     -1.626182    -0.623062    -0.397876
H     -1.144205     0.164163     1.117212
H      0.746187    -0.485451    -1.206317
H      0.625428    -1.415234     0.281036
H      1.413273     1.264187     0.174707
9
Iteration 0, Energy=-154.0926935694, |grad|=0.002439
C     -0.914348     0.071614     0.054044
C      0.511975    -0.415143    -0.137200
O      1.450154     0.387378     0.526872
H     -1.062171     1.051251    -0.411822
H     -1.626130    -0.622721    -0.398487
H     -1.144448     0.163770     1.117313
H      0.746193    -0.485631    -1.206123
H      0.625372    -1.415146     0.281330
H      1.413404     1.264628     0.174073
9
Iteration 1, Energy=-154.0926944574, |grad|=0.001782
C     -0.914368     0.071556     0.054089
C      0.511960    -0.415188    -0.137132
O      1.450179     0.387623     0.526728
H     -1.062065     1.051329    -0.411484
H     -1.626150    -0.622581    -0.398861
H     -1.144596     0.163523     1.117355
H      0.746198    -0.485739    -1.206021
H      0.625351    -1.415117     0.281504
H      1.413491     1.264596     0.173822
9
Iteration 2, Energy=-154.0926995144, |grad|=0.002400
C     -0.914639     0.070873     0.054575
C      0.511875    -0.415464    -0.136334
O      1.450397     0.389567     0.525361
H     -1.060841     1.052258    -0.407636
H     -1.626313    -0.620941    -0.403067
H     -1.146316     0.160637     1.117818
H      0.746237    -0.487013    -1.204901
H      0.625178    -1.414809     0.283552
H      1.414423     1.264893     0.170633
9
Iteration 3, Energy=-154.0927028333, |grad|=0.002899
C     -0.914797     0.070494     0.054997
C      0.511732    -0.415493    -0.135584
O      1.450516     0.390973     0.524338
H     -1.059663     1.053210    -0.404001
H     -1.626363    -0.619339    -0.406894
H     -1.148052     0.157625     1.118152
H      0.746209    -0.488338    -1.203977
H      0.625195    -1.414507     0.285605
H      1.415223     1.265375     0.167365
9
Iteration 4, Energy=-154.0927095876, |grad|=0.004593
C     -0.915672     0.069423     0.055809
C      0.511795    -0.415855    -0.133528
O      1.450288     0.394659     0.522125
H     -1.056539     1.056971    -0.394660
H     -1.625386    -0.614261    -0.415999
H     -1.153200     0.148301     1.118669
H      0.745687    -0.492333    -1.201899
H      0.625857    -1.412868     0.291277
H      1.417170     1.265963     0.158206
9
Iteration 0, Energy=-154.0041562233, |grad|=0.775976
C     -1.019870    -0.042852    -0.051909
C      0.539635    -0.284741    -0.237554
O      1.245424     0.337875     0.642382
H     -1.445087     0.817142    -0.684491
H     -1.527723    -0.806812     0.108522
H     -0.993088     0.545885     1.037308
H      0.738747    -0.059808    -1.318679
H      0.618485    -1.505907     0.011688
H      1.875441     1.098563     0.308952
9
Iteration -1, Energy=-154.0927095876, |grad|=0.004593
C     -0.915672     0.069423     0.055809
C      0.511795    -0.415855    -0.133528
O      1.450288     0.394659     0.522125
H     -1.056539     1.056971    -0.394660
H     -1.625386    -0.614261    -0.415999
H     -1.153200     0.148301     1.118669
H      0.745687    -0.492333    -1.201899
H      0.625857    -1.412868     0.291277
H      1.417170     1.265963     0.158206
9
Iteration 0, Energy=-154.0927124775, |grad|=0.002761
C     -0.915218     0.069969     0.055818
C      0.511696    -0.415408    -0.133666
O      1.450099     0.393768     0.522559
H     -1.056545     1.057032    -0.394711
H     -1.625436    -0.614401    -0.415851
H     -1.153344     0.147974     1.118563
H      0.745581    -0.492464    -1.201966
H      0.626116    -1.412919     0.291433
H      1.417052     1.266450     0.157820
9
Iteration 1, Energy=-154.0927135744, |grad|=0.001754
C     -0.915145     0.070110     0.055779
C      0.511665    -0.415434    -0.133683
O      1.450033     0.393945     0.522583
H     -1.056555     1.057157    -0.394766
H     -1.625352    -0.614380    -0.415706
H     -1.153414     0.147791     1.118507
H      0.745519    -0.492524    -1.202023
H      0.626220    -1.412841     0.291457
H      1.417031     1.266176     0.157852
9
Iteration 2, Energy=-154.0927154241, |grad|=0.001361
C     -0.914908     0.070609     0.055634
C      0.511623    -0.415405    -0.133753
O      1.449733     0.394099     0.522856
H     -1.056589     1.057691    -0.394991
H     -1.624998    -0.614275    -0.415119
H     -1.153695     0.147051     1.118275
H      0.745264    -0.492772    -1.202238
H      0.626649    -1.412541     0.291579
H      1.416921     1.265542     0.157757
9
Iteration 3, Energy=-154.0927161172, |grad|=0.000788
C     -0.914889     0.070846     0.055522
C      0.511688    -0.415391    -0.133785
O      1.449492     0.393982     0.523149
H     -1.056600     1.058215    -0.395159
H     -1.624654    -0.614128    -0.414666
H     -1.153915     0.146439     1.118090
H      0.745053    -0.492975    -1.202378
H      0.626974    -1.412269     0.291686
H      1.416852     1.265280     0.157540
9
Iteration 4, Energy=-154.0927162423, |grad|=0.000581
C     -0.914745     0.071120     0.055492
C      0.511624    -0.415281    -0.133806
O      1.449386     0.393919     0.523299
H     -1.056566     1.058447    -0.395108
H     -1.624610    -0.614161    -0.414638
H     -1.154063     0.146047     1.118032
H      0.744952    -0.493103    -1.202394
H      0.627139    -1.412212     0.291820
H      1.416882     1.265224     0.157304
9
Iteration 0, Energy=-154.0584241524, |grad|=0.454457
C     -0.965040     0.105474     0.059883
C      0.564961    -0.330706    -0.157729
O      1.292486     0.378128     0.827483
H     -1.331692     0.760380    -0.662710
H     -1.545509    -0.846237     0.120218
H     -0.989393     0.530890     0.957988
H      0.867746    -0.155064    -1.166030
H      0.683257    -1.389400    -0.069938
H      1.774876     0.961984     0.409683
9
Iteration -1, Energy=-154.0927162423, |grad|=0.000581
C     -0.914745     0.071120     0.055492
C      0.511624    -0.415281    -0.133806
O      1.449386     0.393919     0.523299
H     -1.056566     1.058447    -0.395108
H     -1.624610    -0.614161    -0.414638
H     -1.154063     0.146047     1.118032
H      0.744952    -0.493103    -1.202394
H      0.627139    -1.412212     0.291820
H      1.416882     1.265224     0.157304
9
Iteration 0, Energy=-154.0927162845, |grad|=0.000404
C     -0.914789     0.071075     0.055487
C      0.511642    -0.415294    -0.133789
O      1.449386     0.393920     0.523290
H     -1.056560     1.058464    -0.395092
H     -1.624592    -0.614137    -0.414651
H     -1.154064     0.146039     1.118035
H      0.744953    -0.493104    -1.202387
H      0.627129    -1.412200     0.291823
H      1.416896     1.265238     0.157284
9
Iteration 0, Energy=-154.0256288014, |grad|=0.604876
C     -1.035320    -0.009278     0.049209
C      0.511006    -0.408697    -0.259217
O      1.273800     0.421426     0.761630
H     -1.396788     0.815490    -0.760529
H     -1.517463    -0.891758    -0.000407
H     -1.133845     0.557202     1.022130
H      0.781387    -0.058176    -1.137856
H      0.666907    -1.348659    -0.081190
H      1.889711     1.044816     0.487395
