9
Iteration -1, Energy=-154.0837996503, |grad|=0.044117
C     -0.977020     0.054531     0.039344
C      0.487693    -0.332548    -0.192952
O      1.302254     0.336299     0.743792
H     -1.353582     0.729531    -0.729129
H     -1.591671    -0.850511     0.025441
H     -1.069217     0.581118     0.999619
H      0.788253    -0.138478    -1.230198
H      0.594696    -1.412625    -0.042175
H      1.818594     1.032682     0.386258
9
Iteration 0, Energy=-154.0843833249, |grad|=0.059413
C     -0.977280     0.053879     0.035312
C      0.484312    -0.325026    -0.187773
O      1.305233     0.320355     0.751886
H     -1.354690     0.731318    -0.731808
H     -1.597106    -0.844075     0.028915
H     -1.069673     0.569254     0.994917
H      0.790027    -0.136048    -1.225589
H      0.600639    -1.406722    -0.038040
H      1.818537     1.037066     0.372179
9
Iteration 1, Energy=-154.0849708820, |grad|=0.035094
C     -0.978177     0.054365     0.032267
C      0.483032    -0.324225    -0.185418
O      1.313796     0.319380     0.752837
H     -1.355398     0.732475    -0.733440
H     -1.600947    -0.840538     0.030813
H     -1.070298     0.562238     0.992956
H      0.791269    -0.133974    -1.221992
H      0.603824    -1.402234    -0.035695
H      1.812900     1.032512     0.367673
9
Iteration 2, Energy=-154.0855525641, |grad|=0.015882
C     -0.980572     0.055962     0.025149
C      0.485382    -0.322798    -0.179253
O      1.331056     0.312521     0.753421
H     -1.357325     0.736354    -0.738314
H     -1.612045    -0.832437     0.034509
H     -1.072982     0.545639     0.990668
H      0.794820    -0.127776    -1.211446
H      0.611494    -1.392164    -0.028851
H      1.800172     1.024698     0.354117
9
Iteration 3, Energy=-154.0857041185, |grad|=0.012918
C     -0.979866     0.055951     0.024226
C      0.487718    -0.323802    -0.177507
O      1.336536     0.309057     0.751367
H     -1.357812     0.739262    -0.740843
H     -1.617745    -0.830150     0.033355
H     -1.075975     0.541528     0.993742
H      0.798074    -0.123818    -1.206927
H      0.613990    -1.392890    -0.024920
H      1.795081     1.024862     0.347508
9
Iteration 4, Energy=-154.0858879114, |grad|=0.019755
C     -0.984349     0.059975     0.025899
C      0.492191    -0.332712    -0.172545
O      1.350274     0.301923     0.745186
H     -1.353411     0.743306    -0.740109
H     -1.629306    -0.822421     0.024813
H     -1.085134     0.532524     1.000771
H      0.809041    -0.114233    -1.198539
H      0.618760    -1.399964    -0.015309
H      1.781934     1.031603     0.329834
9
Iteration 0, Energy=-153.8635286004, |grad|=1.394125
C     -0.853455    -0.052196     0.142499
C      0.587919    -0.421539    -0.089050
O      1.176978     0.224784     0.637673
H     -1.457013     0.633975    -0.633223
H     -1.493321    -0.762570    -0.078241
H     -0.971031     0.696439     1.111163
H      0.887406    -0.040609    -1.335774
H      0.490028    -1.326110     0.055970
H      1.932490     0.947825     0.488982
9
Iteration -1, Energy=-154.0858879114, |grad|=0.019755
C     -0.984349     0.059975     0.025899
C      0.492191    -0.332712    -0.172545
O      1.350274     0.301923     0.745186
H     -1.353411     0.743306    -0.740109
H     -1.629306    -0.822421     0.024813
H     -1.085134     0.532524     1.000771
H      0.809041    -0.114233    -1.198539
H      0.618760    -1.399964    -0.015309
H      1.781934     1.031603     0.329834
9
Iteration 0, Energy=-154.0859565451, |grad|=0.009760
C     -0.981954     0.057697     0.026682
C      0.490914    -0.330743    -0.173223
O      1.350611     0.302731     0.744626
H     -1.352888     0.744321    -0.739948
H     -1.629267    -0.822193     0.023716
H     -1.085654     0.533271     1.001545
H      0.808783    -0.115457    -1.198207
H      0.618427    -1.401522    -0.015309
H      1.781028     1.031895     0.330117
9
Iteration 1, Energy=-154.0859975546, |grad|=0.009758
C     -0.979824     0.056415     0.027604
C      0.490388    -0.330369    -0.173284
O      1.350379     0.303304     0.743840
H     -1.351326     0.745188    -0.738538
H     -1.629111    -0.822165     0.021705
H     -1.086398     0.534042     1.002367
H      0.808331    -0.117405    -1.198184
H      0.617654    -1.402515    -0.015595
H      1.779906     1.033506     0.330084
9
Iteration 2, Energy=-154.0860846868, |grad|=0.014129
C     -0.976153     0.054511     0.030372
C      0.490270    -0.331176    -0.173151
O      1.350274     0.305554     0.741346
H     -1.345762     0.747466    -0.733449
H     -1.628222    -0.821957     0.015372
H     -1.088386     0.535496     1.004344
H      0.806840    -0.123462    -1.198516
H      0.615292    -1.404803    -0.016344
H      1.775846     1.038371     0.330025
9
Iteration 3, Energy=-154.0861938558, |grad|=0.019303
C     -0.972940     0.053201     0.034639
C      0.490891    -0.333048    -0.171924
O      1.350322     0.306741     0.738365
H     -1.335240     0.752593    -0.724820
H     -1.626393    -0.821279     0.004225
H     -1.091206     0.535669     1.007862
H      0.804117    -0.134328    -1.200232
H      0.612077    -1.408864    -0.016150
H      1.768372     1.049314     0.328034
9
Iteration 4, Energy=-154.0863281009, |grad|=0.019805
C     -0.969211     0.053445     0.040207
C      0.491693    -0.339449    -0.169597
O      1.355035     0.312665     0.731446
H     -1.317962     0.762525    -0.711517
H     -1.623841    -0.820179    -0.013760
H     -1.095249     0.533216     1.014150
H      0.799524    -0.151887    -1.203281
H      0.607655    -1.413863    -0.014183
H      1.752356     1.063527     0.326535
9
Iteration 0, Energy=-153.7888212425, |grad|=3.026021
C     -0.853455    -0.052196     0.142499
C      0.587919    -0.421539    -0.089050
O      1.376978     0.424784     0.637673
H     -1.257013     0.633975    -0.633223
H     -1.493321    -0.962570     0.121759
H     -0.971031     0.496439     0.911163
H      0.687406    -0.040609    -1.335774
H      0.690028    -1.326110     0.055970
H      1.732490     0.947825     0.488982
9
Iteration -1, Energy=-154.0863281009, |grad|=0.019805
C     -0.969211     0.053445     0.040207
C      0.491693    -0.339449    -0.169597
O      1.355035     0.312665     0.731446
H     -1.317962     0.762525    -0.711517
H     -1.623841    -0.820179    -0.013760
H     -1.095249     0.533216     1.014150
H      0.799524    -0.151887    -1.203281
H      0.607655    -1.413863    -0.014183
H      1.752356     1.063527     0.326535
9
Iteration 0, Energy=-154.0864181960, |grad|=0.026360
C     -0.973739     0.056865     0.038188
C      0.494543    -0.340611    -0.168995
O      1.355158     0.306477     0.732479
H     -1.317796     0.765164    -0.713003
H     -1.624087    -0.818925    -0.013094
H     -1.093940     0.527729     1.014485
H      0.798953    -0.151692    -1.203085
H      0.609709    -1.412197    -0.010183
H      1.751199     1.067189     0.323207
9
Iteration 1, Energy=-154.0865155175, |grad|=0.015555
C     -0.973881     0.057293     0.037266
C      0.493912    -0.340773    -0.168957
O      1.357492     0.307167     0.731519
H     -1.317993     0.766916    -0.714035
H     -1.624502    -0.818362    -0.012978
H     -1.093511     0.525440     1.015058
H      0.798879    -0.151702    -1.203036
H      0.610589    -1.411990    -0.008274
H      1.749015     1.066010     0.323436
9
Iteration 2, Energy=-154.0866646141, |grad|=0.011495
C     -0.974536     0.059362     0.033651
C      0.492651    -0.340910    -0.168521
O      1.364038     0.305325     0.729015
H     -1.318572     0.773902    -0.717738
H     -1.626277    -0.815959    -0.012843
H     -1.091780     0.515979     1.017321
H      0.798483    -0.152027    -1.202738
H      0.614096    -1.411021    -0.000242
H      1.741897     1.065348     0.322096
9
Iteration 3, Energy=-154.0867353348, |grad|=0.010806
C     -0.973285     0.060468     0.031431
C      0.492074    -0.341193    -0.168263
O      1.367653     0.302363     0.726813
H     -1.318528     0.779122    -0.719068
H     -1.628001    -0.813683    -0.014200
H     -1.090764     0.508984     1.019219
H      0.798318    -0.153245    -1.202371
H      0.615989    -1.410325     0.006137
H      1.736543     1.067510     0.320302
9
Iteration 4, Energy=-154.0868700267, |grad|=0.014273
C     -0.972566     0.063465     0.028121
C      0.494287    -0.344635    -0.168175
O      1.375511     0.297910     0.719619
H     -1.315762     0.789286    -0.716611
H     -1.631209    -0.806684    -0.021327
H     -1.088682     0.493734     1.023014
H      0.798302    -0.158928    -1.201944
H      0.617708    -1.408978     0.020301
H      1.722409     1.074830     0.317002
9
Iteration 0, Energy=-153.9693993966, |grad|=0.552722
C     -1.053455     0.147804    -0.057501
C      0.394128    -0.421539    -0.089050
O      1.176978     0.224784     0.837673
H     -1.457013     0.833975    -0.833223
H     -1.493321    -0.962570    -0.039862
H     -0.971031     0.496439     1.111163
H      0.687406    -0.240609    -1.335774
H      0.490028    -1.526110    -0.144030
H      1.732490     1.147825     0.288982
9
Iteration -1, Energy=-154.0868700267, |grad|=0.014273
C     -0.972566     0.063465     0.028121
C      0.494287    -0.344635    -0.168175
O      1.375511     0.297910     0.719619
H     -1.315762     0.789286    -0.716611
H     -1.631209    -0.806684    -0.021327
H     -1.088682     0.493734     1.023014
H      0.798302    -0.158928    -1.201944
H      0.617708    -1.408978     0.020301
H      1.722409     1.074830     0.317002
9
Iteration 0, Energy=-154.0869499029, |grad|=0.023998
C     -0.968993     0.061177     0.031068
C      0.493342    -0.343214    -0.168027
O      1.373605     0.296820     0.719891
H     -1.313116     0.789536    -0.711749
H     -1.631514    -0.806235    -0.026696
H     -1.089309     0.495670     1.023827
H      0.799216    -0.163435    -1.203842
H      0.615076    -1.412188     0.019855
H      1.721693     1.081869     0.315673
9
Iteration 1, Energy=-154.0870470516, |grad|=0.014857
C     -0.968112     0.060579     0.032380
C      0.493525    -0.344457    -0.168165
O      1.374200     0.299612     0.718543
H     -1.311215     0.789670    -0.708464
H     -1.631466    -0.805879    -0.030021
H     -1.089599     0.496555     1.024486
H      0.799602    -0.166283    -1.204701
H      0.613318    -1.413178     0.019466
H      1.719746     1.083381     0.316477
9
Iteration 2, Energy=-154.0871875099, |grad|=0.010650
C     -0.966246     0.059010     0.036431
C      0.495713    -0.348312    -0.168611
O      1.374861     0.305733     0.714565
H     -1.304411     0.791170    -0.697606
H     -1.631097    -0.804536    -0.041338
H     -1.090355     0.498555     1.027139
H      0.800426    -0.176559    -1.207021
H      0.607806    -1.416164     0.018845
H      1.713302     1.091103     0.317597
9
Iteration 3, Energy=-154.0872659718, |grad|=0.012421
C     -0.965389     0.058629     0.037743
C      0.496659    -0.349725    -0.168514
O      1.375982     0.307265     0.711926
H     -1.300358     0.795071    -0.693142
H     -1.630832    -0.803715    -0.047396
H     -1.090306     0.497026     1.029523
H      0.800216    -0.183171    -1.207667
H      0.606159    -1.417517     0.020266
H      1.707869     1.096137     0.317261
9
Iteration 4, Energy=-154.0879345582, |grad|=0.032345
C     -0.954722     0.062880     0.046477
C      0.500140    -0.367773    -0.163690
O      1.393081     0.317854     0.683295
H     -1.255817     0.842707    -0.647501
H     -1.628484    -0.793125    -0.110495
H     -1.088388     0.468120     1.054424
H      0.796905    -0.253316    -1.216482
H      0.594281    -1.429024     0.043693
H      1.643003     1.151677     0.310279
9
Iteration 0, Energy=-153.9259573389, |grad|=0.726195
C     -0.922641     0.147804    -0.057501
C      0.387919    -0.221539    -0.289050
O      1.176978     0.224784     0.837673
H     -1.457013     0.833975    -0.833223
H     -1.693321    -0.762570     0.121759
H     -0.971031     0.496439     1.111163
H      0.687406    -0.240609    -1.335774
H      0.690028    -1.526110     0.055970
H      1.854989     1.147825     0.288982
9
Iteration -1, Energy=-154.0879345582, |grad|=0.032345
C     -0.954722     0.062880     0.046477
C      0.500140    -0.367773    -0.163690
O      1.393081     0.317854     0.683295
H     -1.255817     0.842707    -0.647501
H     -1.628484    -0.793125    -0.110495
H     -1.088388     0.468120     1.054424
H      0.796905    -0.253316    -1.216482
H      0.594281    -1.429024     0.043693
H      1.643003     1.151677     0.310279
9
Iteration 0, Energy=-154.0882287152, |grad|=0.026992
C     -0.955042     0.058919     0.044642
C      0.499888    -0.360733    -0.166618
O      1.394771     0.314746     0.681468
H     -1.256325     0.846982    -0.650912
H     -1.626830    -0.787294    -0.108110
H     -1.088065     0.461721     1.053907
H      0.794944    -0.252255    -1.213839
H      0.597679    -1.430832     0.050250
H      1.638980     1.148746     0.309212
9
Iteration 1, Energy=-154.0884518122, |grad|=0.021363
C     -0.954425     0.061247     0.041988
C      0.499606    -0.361499    -0.166045
O      1.396366     0.312239     0.679577
H     -1.256471     0.849500    -0.652612
H     -1.626912    -0.784205    -0.106511
H     -1.087699     0.455006     1.053214
H      0.793591    -0.250600    -1.213385
H      0.600617    -1.428630     0.055618
H      1.635327     1.146943     0.308156
9
Iteration 2, Energy=-154.0886885192, |grad|=0.037733
C     -0.949261     0.069988     0.034862
C      0.499791    -0.367100    -0.167530
O      1.405068     0.299324     0.676932
H     -1.255072     0.863129    -0.658373
H     -1.632055    -0.775026    -0.106852
H     -1.086270     0.429078     1.055204
H      0.788476    -0.247342    -1.214059
H      0.609943    -1.421958     0.079466
H      1.619380     1.149906     0.300350
9
Iteration 3, Energy=-154.0888259896, |grad|=0.025512
C     -0.950662     0.071295     0.032129
C      0.500717    -0.369413    -0.164719
O      1.409283     0.305612     0.670332
H     -1.253285     0.865990    -0.657554
H     -1.632507    -0.771148    -0.108567
H     -1.085546     0.422696     1.056323
H      0.787878    -0.247726    -1.215650
H      0.611295    -1.421020     0.085080
H      1.612826     1.143714     0.302626
9
Iteration 4, Energy=-154.0889089519, |grad|=0.010397
C     -0.951083     0.069786     0.034125
C      0.501060    -0.368089    -0.164991
O      1.407199     0.304803     0.671862
H     -1.252947     0.864174    -0.656014
H     -1.632240    -0.772877    -0.109783
H     -1.085762     0.426912     1.056371
H      0.788738    -0.249177    -1.215591
H      0.609459    -1.422589     0.081614
H      1.615575     1.147057     0.302407
9
Iteration 0, Energy=-153.9561634612, |grad|=0.754717
C     -0.853455     0.147804     0.142499
C      0.387919    -0.421539    -0.089050
O      1.176978     0.424784     0.837673
H     -1.457013     0.633975    -0.833223
H     -1.493321    -0.962570     0.121759
H     -0.971031     0.696439     0.911163
H      0.687406    -0.040609    -1.335774
H      0.490028    -1.526110    -0.144030
H      1.932490     0.947825     0.488982
9
Iteration -1, Energy=-154.0889089519, |grad|=0.010397
C     -0.951083     0.069786     0.034125
C      0.501060    -0.368089    -0.164991
O      1.407199     0.304803     0.671862
H     -1.252947     0.864174    -0.656014
H     -1.632240    -0.772877    -0.109783
H     -1.085762     0.426912     1.056371
H      0.788738    -0.249177    -1.215591
H      0.609459    -1.422589     0.081614
H      1.615575     1.147057     0.302407
9
Iteration 0, Energy=-154.0889789616, |grad|=0.022953
C     -0.951175     0.067619     0.036628
C      0.501645    -0.366182    -0.164979
O      1.406460     0.303759     0.668775
H     -1.248757     0.865263    -0.650395
H     -1.632442    -0.770739    -0.116483
H     -1.085485     0.426264     1.057394
H      0.789216    -0.255176    -1.215097
H      0.607631    -1.425150     0.082848
H      1.612908     1.154341     0.301308
9
Iteration 1, Energy=-154.0890799686, |grad|=0.016298
C     -0.950622     0.066903     0.037904
C      0.501357    -0.367366    -0.164720
O      1.407400     0.306531     0.665806
H     -1.245694     0.866364    -0.646220
H     -1.632887    -0.769578    -0.121505
H     -1.085383     0.425494     1.058562
H      0.789533    -0.259518    -1.215138
H      0.606237    -1.425909     0.083631
H      1.610058     1.157079     0.301681
9
Iteration 2, Energy=-154.0893279354, |grad|=0.015040
C     -0.946837     0.064367     0.042812
C      0.500718    -0.374148    -0.163542
O      1.411823     0.316111     0.653885
H     -1.231153     0.874117    -0.627317
H     -1.635413    -0.764325    -0.145274
H     -1.085197     0.419944     1.065353
H      0.790083    -0.280588    -1.215930
H      0.600491    -1.428371     0.088836
H      1.595486     1.172894     0.301179
9
Iteration 3, Energy=-154.0895194540, |grad|=0.020307
C     -0.944589     0.062727     0.044954
C      0.502229    -0.376885    -0.163430
O      1.416292     0.321893     0.645716
H     -1.220267     0.884667    -0.615524
H     -1.636463    -0.758938    -0.161663
H     -1.085310     0.411287     1.071139
H      0.788550    -0.296744    -1.217055
H      0.598500    -1.430909     0.096498
H      1.581058     1.182902     0.299365
9
Iteration 4, Energy=-154.0902686462, |grad|=0.035122
C     -0.930943     0.062666     0.052642
C      0.510630    -0.396736    -0.158150
O      1.440755     0.346467     0.600617
H     -1.159279     0.946921    -0.550861
H     -1.641367    -0.727735    -0.250054
H     -1.086309     0.353872     1.101761
H      0.778113    -0.385076    -1.225996
H      0.592104    -1.440291     0.144449
H      1.496295     1.239912     0.285592
9
Iteration 0, Energy=-153.8808499386, |grad|=0.901224
C     -0.853455    -0.052196     0.142499
C      0.387919    -0.221539    -0.289050
O      1.176978     0.251191     0.837673
H     -1.457013     0.833975    -0.833223
H     -1.693321    -0.962570     0.121759
H     -0.971031     0.696439     1.111163
H      0.887406    -0.040609    -1.135774
H      0.490028    -1.526110    -0.144030
H      1.932490     1.147825     0.488982
9
Iteration -1, Energy=-154.0902686462, |grad|=0.035122
C     -0.930943     0.062666     0.052642
C      0.510630    -0.396736    -0.158150
O      1.440755     0.346467     0.600617
H     -1.159279     0.946921    -0.550861
H     -1.641367    -0.727735    -0.250054
H     -1.086309     0.353872     1.101761
H      0.778113    -0.385076    -1.225996
H      0.592104    -1.440291     0.144449
H      1.496295     1.239912     0.285592
9
Iteration 0, Energy=-154.0908939526, |grad|=0.027020
C     -0.933232     0.067181     0.047306
C      0.510518    -0.391851    -0.160443
O      1.436716     0.339868     0.595994
H     -1.158590     0.947621    -0.551236
H     -1.633798    -0.717626    -0.242212
H     -1.087198     0.341715     1.094880
H      0.774675    -0.381509    -1.221426
H      0.599723    -1.437524     0.153597
H      1.491186     1.232126     0.283540
9
Iteration 1, Energy=-154.0912333381, |grad|=0.015511
C     -0.926080     0.073231     0.043692
C      0.504732    -0.395801    -0.158627
O      1.435607     0.335098     0.593327
H     -1.159289     0.953370    -0.554476
H     -1.630182    -0.710925    -0.235930
H     -1.088985     0.327343     1.089327
H      0.771489    -0.376780    -1.221184
H      0.608039    -1.429416     0.163406
H      1.484668     1.223881     0.280465
9
Iteration 2, Energy=-154.0913111146, |grad|=0.016609
C     -0.924448     0.073822     0.041918
C      0.506836    -0.395474    -0.160338
O      1.437163     0.330947     0.595295
H     -1.158840     0.959375    -0.557004
H     -1.631017    -0.709660    -0.235817
H     -1.090097     0.321346     1.091473
H      0.769013    -0.375679    -1.222102
H      0.610782    -1.428523     0.169787
H      1.480608     1.223847     0.276789
9
Iteration 3, Energy=-154.0913631954, |grad|=0.007699
C     -0.925039     0.074586     0.041549
C      0.508577    -0.396338    -0.160122
O      1.438637     0.333040     0.595176
H     -1.157998     0.961579    -0.557243
H     -1.632048    -0.709726    -0.237197
H     -1.090348     0.319246     1.093022
H      0.768261    -0.375770    -1.223462
H      0.611109    -1.428654     0.172122
H      1.478849     1.222036     0.276156
9
Iteration 4, Energy=-154.0913906250, |grad|=0.007264
C     -0.925764     0.075410     0.041692
C      0.509873    -0.397021    -0.159112
O      1.439982     0.334168     0.594717
H     -1.156555     0.963415    -0.556566
H     -1.633097    -0.709472    -0.239492
H     -1.090497     0.316915     1.094215
H      0.767779    -0.376344    -1.224978
H      0.611281    -1.428923     0.174544
H      1.476999     1.221852     0.274979
9
Iteration 0, Energy=-153.9413931095, |grad|=0.987371
C     -0.853455    -0.052196     0.142499
C      0.387919    -0.221539    -0.089050
O      1.176978     0.424784     0.837673
H     -1.257013     0.833975    -0.633223
H     -1.493321    -0.962570    -0.078241
H     -0.971031     0.496439     0.911163
H      0.687406    -0.240609    -1.335774
H      0.690028    -1.326110     0.055970
H      1.932490     1.147825     0.488982
9
Iteration -1, Energy=-154.0913906250, |grad|=0.007264
C     -0.925764     0.075410     0.041692
C      0.509873    -0.397021    -0.159112
O      1.439982     0.334168     0.594717
H     -1.156555     0.963415    -0.556566
H     -1.633097    -0.709472    -0.239492
H     -1.090497     0.316915     1.094215
H      0.767779    -0.376344    -1.224978
H      0.611281    -1.428923     0.174544
H      1.476999     1.221852     0.274979
9
Iteration 0, Energy=-154.0914223721, |grad|=0.016537
C     -0.925512     0.074006     0.043306
C      0.507270    -0.396375    -0.158457
O      1.440202     0.333119     0.592075
H     -1.153180     0.963134    -0.551954
H     -1.632666    -0.706509    -0.244295
H     -1.090637     0.314645     1.093524
H      0.768164    -0.379115    -1.223442
H      0.610880    -1.429494     0.176399
H      1.475479     1.226588     0.272845
9
Iteration 1, Energy=-154.0914682519, |grad|=0.010123
C     -0.925383     0.073590     0.043722
C      0.506650    -0.397213    -0.158079
O      1.440525     0.335323     0.589904
H     -1.151270     0.963383    -0.549392
H     -1.632689    -0.705111    -0.247164
H     -1.090890     0.313242     1.093838
H      0.768125    -0.380740    -1.222661
H      0.610502    -1.429406     0.177405
H      1.474429     1.226931     0.272427
9
Iteration 2, Energy=-154.0915478200, |grad|=0.012005
C     -0.924740     0.072058     0.045060
C      0.505831    -0.399422    -0.156831
O      1.441327     0.340472     0.583282
H     -1.144579     0.965303    -0.540778
H     -1.633159    -0.700525    -0.257405
H     -1.092024     0.307969     1.095642
H      0.767594    -0.386736    -1.220223
H      0.609334    -1.429281     0.181429
H      1.470416     1.230162     0.269824
9
Iteration 3, Energy=-154.0916355192, |grad|=0.016723
C     -0.923616     0.070309     0.046588
C      0.506387    -0.401682    -0.155424
O      1.442517     0.345581     0.576380
H     -1.136330     0.969761    -0.530830
H     -1.634284    -0.695349    -0.270260
H     -1.093903     0.300493     1.098874
H      0.766289    -0.394699    -1.218190
H      0.608294    -1.429363     0.187317
H      1.464648     1.234948     0.265544
9
Iteration 4, Energy=-154.0918804800, |grad|=0.023599
C     -0.920526     0.066664     0.050879
C      0.508543    -0.407814    -0.150843
O      1.447672     0.360003     0.558048
H     -1.110604     0.987488    -0.500843
H     -1.637172    -0.678949    -0.309264
H     -1.100735     0.273690     1.108883
H      0.761173    -0.420669    -1.215171
H      0.607219    -1.430027     0.208118
H      1.444430     1.249615     0.250191
9
Iteration 0, Energy=-153.9208659311, |grad|=1.063034
C     -1.053455     0.147804    -0.057501
C      0.587919    -0.221539    -0.089050
O      1.176978     0.224784     0.837673
H     -1.257013     0.833975    -0.833223
H     -1.693321    -0.962570    -0.078241
H     -0.971031     0.496439     0.911163
H      0.687406    -0.040609    -1.335774
H      0.690028    -1.326110     0.055970
H      1.932490     0.947825     0.288982
9
Iteration -1, Energy=-154.0918804800, |grad|=0.023599
C     -0.920526     0.066664     0.050879
C      0.508543    -0.407814    -0.150843
O      1.447672     0.360003     0.558048
H     -1.110604     0.987488    -0.500843
H     -1.637172    -0.678949    -0.309264
H     -1.100735     0.273690     1.108883
H      0.761173    -0.420669    -1.215171
H      0.607219    -1.430027     0.208118
H      1.444430     1.249615     0.250191
9
Iteration 0, Energy=-154.0919655475, |grad|=0.018392
C     -0.920668     0.067471     0.050497
C      0.509466    -0.405858    -0.151157
O      1.447449     0.354767     0.560641
H     -1.110778     0.989854    -0.501539
H     -1.636345    -0.678328    -0.308027
H     -1.101478     0.271399     1.108441
H      0.760368    -0.421364    -1.216509
H      0.608922    -1.430272     0.209891
H      1.443064     1.252332     0.247761
9
Iteration 1, Energy=-154.0920162391, |grad|=0.012822
C     -0.920519     0.068365     0.050103
C      0.509630    -0.406128    -0.151242
O      1.447571     0.355560     0.561088
H     -1.110898     0.991192    -0.501804
H     -1.635899    -0.678034    -0.307374
H     -1.101975     0.269956     1.108252
H      0.759909    -0.421716    -1.217278
H      0.609825    -1.429933     0.210717
H      1.442357     1.250737     0.247537
9
Iteration 2, Energy=-154.0921305251, |grad|=0.006788
C     -0.919334     0.073102     0.047828
C      0.510904    -0.406817    -0.151620
O      1.447490     0.356195     0.563792
H     -1.111442     0.998607    -0.502908
H     -1.633454    -0.676234    -0.304077
H     -1.104811     0.261859     1.107288
H      0.757374    -0.423821    -1.220910
H      0.614910    -1.427953     0.215495
H      1.438363     1.245061     0.245113
9
Iteration 3, Energy=-154.0921535091, |grad|=0.004914
C     -0.918131     0.074295     0.047086
C      0.511057    -0.407189    -0.151788
O      1.446644     0.355414     0.563276
H     -1.111176     1.001420    -0.502027
H     -1.632466    -0.674906    -0.304091
H     -1.106052     0.258399     1.106929
H      0.756616    -0.425086    -1.220615
H      0.616687    -1.426657     0.217602
H      1.436820     1.244310     0.243629
9
Iteration 4, Energy=-154.0921869467, |grad|=0.005945
C     -0.917679     0.075444     0.046422
C      0.510520    -0.406914    -0.151401
O      1.446229     0.355150     0.561198
H     -1.109340     1.006018    -0.498128
H     -1.630605    -0.671454    -0.306701
H     -1.108044     0.251698     1.106258
H      0.755917    -0.428574    -1.220121
H      0.619193    -1.425472     0.222232
H      1.433809     1.244106     0.240242
9
Iteration 0, Energy=-153.9478474905, |grad|=0.749101
C     -0.853455    -0.052196     0.142499
C      0.387919    -0.221539    -0.289050
O      1.176978     0.424784     0.637673
H     -1.457013     0.833975    -0.633223
H     -1.493321    -0.762570    -0.078241
H     -1.171031     0.496439     0.911163
H      0.887406    -0.040609    -1.335774
H      0.690028    -1.526110    -0.144030
H      1.932490     0.947825     0.488982
9
Iteration -1, Energy=-154.0921869467, |grad|=0.005945
C     -0.917679     0.075444     0.046422
C      0.510520    -0.406914    -0.151401
O      1.446229     0.355150     0.561198
H     -1.109340     1.006018    -0.498128
H     -1.630605    -0.671454    -0.306701
H     -1.108044     0.251698     1.106258
H      0.755917    -0.428574    -1.220121
H      0.619193    -1.425472     0.222232
H      1.433809     1.244106     0.240242
9
Iteration 0, Energy=-154.0922042526, |grad|=0.008397
C     -0.917227     0.075589     0.047145
C      0.510715    -0.408954    -0.151079
O      1.447089     0.357086     0.560208
H     -1.108316     1.005871    -0.496100
H     -1.631910    -0.671735    -0.309939
H     -1.108223     0.251453     1.107308
H      0.756138    -0.429584    -1.219645
H      0.617968    -1.424999     0.222409
H      1.433767     1.245274     0.239692
9
Iteration 1, Energy=-154.0922236261, |grad|=0.006312
C     -0.917371     0.074554     0.047635
C      0.510987    -0.408882    -0.150871
O      1.447635     0.357661     0.559337
H     -1.107262     1.006084    -0.494296
H     -1.632527    -0.671258    -0.312635
H     -1.108401     0.251059     1.108187
H      0.756312    -0.430721    -1.219209
H      0.617057    -1.425415     0.223057
H      1.433570     1.246919     0.238795
9
Iteration 2, Energy=-154.0922594988, |grad|=0.007183
C     -0.918537     0.070910     0.049219
C      0.511544    -0.408146    -0.149548
O      1.449357     0.361762     0.554956
H     -1.102910     1.007146    -0.486927
H     -1.633760    -0.668245    -0.322453
H     -1.109287     0.248258     1.110710
H      0.756871    -0.435474    -1.217877
H      0.614250    -1.427039     0.226184
H      1.432472     1.250828     0.235736
9
Iteration 3, Energy=-154.0922843093, |grad|=0.009941
C     -0.918420     0.070867     0.050107
C      0.511334    -0.408869    -0.148564
O      1.449781     0.362241     0.552617
H     -1.099780     1.008457    -0.481447
H     -1.633775    -0.665557    -0.328472
H     -1.110550     0.244063     1.111288
H      0.756734    -0.439126    -1.216965
H      0.613734    -1.426605     0.229126
H      1.430943     1.254528     0.232311
9
Iteration 4, Energy=-154.0923184009, |grad|=0.010952
C     -0.918005     0.070831     0.050565
C      0.510838    -0.409409    -0.147964
O      1.449927     0.363773     0.550176
H     -1.096866     1.010653    -0.476502
H     -1.633119    -0.662413    -0.333476
H     -1.112135     0.239083     1.111605
H      0.756248    -0.442765    -1.216093
H      0.613967    -1.425986     0.232469
H      1.429144     1.256233     0.229220
9
Iteration 0, Energy=-153.9087798386, |grad|=1.027358
C     -0.853455    -0.052196     0.142499
C      0.587919    -0.221539    -0.089050
O      1.176978     0.224784     0.837673
H     -1.257013     0.633975    -0.633223
H     -1.493321    -0.762570    -0.078241
H     -1.171031     0.496439     1.011769
H      0.887406    -0.240609    -1.135774
H      0.690028    -1.414055     0.055970
H      1.932490     1.147825     0.288982
9
Iteration -1, Energy=-154.0923184009, |grad|=0.010952
C     -0.918005     0.070831     0.050565
C      0.510838    -0.409409    -0.147964
O      1.449927     0.363773     0.550176
H     -1.096866     1.010653    -0.476502
H     -1.633119    -0.662413    -0.333476
H     -1.112135     0.239083     1.111605
H      0.756248    -0.442765    -1.216093
H      0.613967    -1.425986     0.232469
H      1.429144     1.256233     0.229220
9
Iteration 0, Energy=-154.0923372532, |grad|=0.006217
C     -0.917660     0.070938     0.050276
C      0.510809    -0.409729    -0.148141
O      1.449828     0.365252     0.549865
H     -1.096863     1.011556    -0.476620
H     -1.632838    -0.662132    -0.333224
H     -1.112493     0.238272     1.111666
H      0.755937    -0.442962    -1.216136
H      0.614415    -1.425686     0.232887
H      1.428866     1.254492     0.229427
9
Iteration 1, Energy=-154.0923491176, |grad|=0.006308
C     -0.917286     0.071279     0.049958
C      0.510952    -0.409788    -0.148250
O      1.449563     0.365372     0.549916
H     -1.096796     1.012674    -0.476678
H     -1.632484    -0.661766    -0.332944
H     -1.112963     0.237099     1.111643
H      0.755524    -0.443282    -1.216245
H      0.615097    -1.425321     0.233546
H      1.428393     1.253733     0.229055
9
Iteration 2, Energy=-154.0923856962, |grad|=0.005566
C     -0.915978     0.073966     0.048799
C      0.511432    -0.410217    -0.148302
O      1.448504     0.364896     0.550441
H     -1.096023     1.017708    -0.476147
H     -1.630757    -0.659853    -0.332191
H     -1.115231     0.230787     1.110988
H      0.753623    -0.445163    -1.217085
H      0.618568    -1.423497     0.237077
H      1.425861     1.251371     0.226420
9
Iteration 3, Energy=-154.0923992559, |grad|=0.009745
C     -0.916032     0.073243     0.048362
C      0.510782    -0.409065    -0.148288
O      1.448809     0.365228     0.549720
H     -1.094027     1.021402    -0.473350
H     -1.629405    -0.656925    -0.334538
H     -1.117003     0.225877     1.111006
H      0.752677    -0.447735    -1.216869
H      0.620327    -1.423431     0.240695
H      1.423871     1.251407     0.223263
9
Iteration 4, Energy=-154.0924205635, |grad|=0.006983
C     -0.915826     0.074297     0.048429
C      0.510876    -0.409776    -0.147642
O      1.448773     0.365533     0.548931
H     -1.092586     1.023185    -0.470990
H     -1.629110    -0.655567    -0.336745
H     -1.118154     0.222576     1.110920
H      0.752121    -0.449419    -1.216773
H      0.621230    -1.422663     0.242744
H      1.422677     1.251835     0.221126
9
Iteration 0, Energy=-153.9609026172, |grad|=0.936009
C     -0.853455    -0.052196     0.142499
C      0.387919    -0.221539    -0.089050
O      1.176978     0.424784     0.837673
H     -1.457013     0.633975    -0.633223
H     -1.493321    -0.762570    -0.078241
H     -1.171031     0.696439     1.096777
H      0.687406    -0.040609    -1.135774
H      0.490028    -1.326110     0.055970
H      1.932490     0.947825     0.288982
9
Iteration -1, Energy=-154.0924205635, |grad|=0.006983
C     -0.915826     0.074297     0.048429
C      0.510876    -0.409776    -0.147642
O      1.448773     0.365533     0.548931
H     -1.092586     1.023185    -0.470990
H     -1.629110    -0.655567    -0.336745
H     -1.118154     0.222576     1.110920
H      0.752121    -0.449419    -1.216773
H      0.621230    -1.422663     0.242744
H      1.422677     1.251835     0.221126
9
Iteration 0, Energy=-154.0924295019, |grad|=0.006907
C     -0.915491     0.075679     0.049065
C      0.511544    -0.411556    -0.146909
O      1.448609     0.366345     0.548037
H     -1.092095     1.022386    -0.469724
H     -1.630035    -0.656046    -0.338473
H     -1.118241     0.222437     1.111074
H      0.752264    -0.449720    -1.216507
H      0.620583    -1.421950     0.242516
H      1.422861     1.252425     0.220921
9
Iteration 1, Energy=-154.0924368396, |grad|=0.004141
C     -0.915562     0.074941     0.049098
C      0.511466    -0.411067    -0.147040
O      1.448735     0.366326     0.547897
H     -1.091879     1.022532    -0.469399
H     -1.630007    -0.655730    -0.338945
H     -1.118318     0.222408     1.111294
H      0.752299    -0.449958    -1.216315
H      0.620426    -1.422271     0.242742
H      1.422840     1.252819     0.220668
9
Iteration 2, Energy=-154.0924501024, |grad|=0.003685
C     -0.915725     0.073275     0.049489
C      0.511418    -0.410560    -0.146977
O      1.449160     0.367148     0.546872
H     -1.090837     1.022634    -0.467542
H     -1.630300    -0.654809    -0.341455
H     -1.118656     0.222073     1.112068
H      0.752496    -0.450978    -1.215641
H      0.619608    -1.422888     0.243424
H      1.422836     1.254106     0.219762
9
Iteration 3, Energy=-154.0924626922, |grad|=0.004974
C     -0.915975     0.071854     0.050175
C      0.511393    -0.410632    -0.146482
O      1.449734     0.368580     0.545282
H     -1.089135     1.022691    -0.464436
H     -1.630770    -0.653496    -0.345382
H     -1.119263     0.221038     1.112967
H      0.752745    -0.452637    -1.214861
H      0.618552    -1.423317     0.244503
H      1.422719     1.255919     0.218233
9
Iteration 4, Energy=-154.0924867717, |grad|=0.006751
C     -0.916084     0.070561     0.051168
C      0.511195    -0.410972    -0.145711
O      1.450431     0.371713     0.542435
H     -1.085669     1.024438    -0.458416
H     -1.630856    -0.650306    -0.352278
H     -1.121199     0.216623     1.114101
H      0.752550    -0.456448    -1.213671
H      0.617947    -1.423430     0.247765
H      1.421685     1.257822     0.214607
9
Iteration 0, Energy=-153.9720494621, |grad|=1.030003
C     -1.053455    -0.052196     0.142499
C      0.387919    -0.221539    -0.089050
O      1.176978     0.424784     0.637673
H     -1.457013     0.636236    -0.633223
H     -1.493321    -0.762570    -0.076703
H     -1.171031     0.696439     0.911163
H      0.687406    -0.040609    -1.135774
H      0.690028    -1.326110     0.055922
H      1.932490     0.947834     0.288982
9
Iteration -1, Energy=-154.0924867717, |grad|=0.006751
C     -0.916084     0.070561     0.051168
C      0.511195    -0.410972    -0.145711
O      1.450431     0.371713     0.542435
H     -1.085669     1.024438    -0.458416
H     -1.630856    -0.650306    -0.352278
H     -1.121199     0.216623     1.114101
H      0.752550    -0.456448    -1.213671
H      0.617947    -1.423430     0.247765
H      1.421685     1.257822     0.214607
9
Iteration 0, Energy=-154.0924961390, |grad|=0.004286
C     -0.915879     0.072070     0.051098
C      0.511542    -0.412075    -0.145038
O      1.450084     0.371168     0.542512
H     -1.085550     1.024664    -0.458099
H     -1.630872    -0.650394    -0.352354
H     -1.121462     0.215670     1.113846
H      0.752357    -0.456631    -1.213987
H      0.618359    -1.422532     0.247939
H      1.421422     1.258060     0.214084
9
Iteration 1, Energy=-154.0925013281, |grad|=0.003856
C     -0.915730     0.072401     0.050998
C      0.511548    -0.412127    -0.145057
O      1.449961     0.371232     0.542527
H     -1.085422     1.025293    -0.457956
H     -1.630657    -0.650137    -0.352333
H     -1.121755     0.214828     1.113728
H      0.752133    -0.456900    -1.214036
H      0.618779    -1.422298     0.248394
H      1.421144     1.257708     0.213736
9
Iteration 2, Energy=-154.0925097139, |grad|=0.012226
C     -0.914686     0.074488     0.049491
C      0.511610    -0.411303    -0.144857
O      1.448864     0.369721     0.542896
H     -1.083423     1.032376    -0.455340
H     -1.628100    -0.646426    -0.353215
H     -1.125148     0.205375     1.113018
H      0.749814    -0.460418    -1.214476
H      0.623144    -1.420382     0.254027
H      1.417925     1.256569     0.208455
9
Iteration 3, Energy=-154.0925297331, |grad|=0.004657
C     -0.914677     0.074775     0.049903
C      0.511469    -0.412284    -0.144705
O      1.449148     0.372154     0.541974
H     -1.083024     1.032305    -0.454461
H     -1.628359    -0.646301    -0.354319
H     -1.125301     0.204971     1.113011
H      0.749870    -0.460752    -1.214297
H      0.622869    -1.420170     0.254203
H      1.418005     1.255303     0.208691
9
Iteration 4, Energy=-154.0925344542, |grad|=0.003692
C     -0.914799     0.074405     0.050181
C      0.511491    -0.412297    -0.144659
O      1.449329     0.372278     0.541738
H     -1.082891     1.031785    -0.454089
H     -1.628664    -0.646375    -0.354972
H     -1.125156     0.205481     1.113173
H      0.750082    -0.460753    -1.214090
H      0.622381    -1.420398     0.254012
H      1.418226     1.255874     0.208705
9
Iteration 0, Energy=-153.9817097809, |grad|=0.842199
C     -1.053455     0.103842     0.142499
C      0.387919    -0.221539    -0.289050
O      1.176978     0.424784     0.837673
H     -1.457013     0.633975    -0.633223
H     -1.493321    -0.762570    -0.078241
H     -1.171031     0.696439     0.911163
H      0.687406    -0.040609    -1.135774
H      0.687224    -1.326110    -0.144030
H      1.932490     0.947825     0.288982
9
Iteration -1, Energy=-154.0925344542, |grad|=0.003692
C     -0.914799     0.074405     0.050181
C      0.511491    -0.412297    -0.144659
O      1.449329     0.372278     0.541738
H     -1.082891     1.031785    -0.454089
H     -1.628664    -0.646375    -0.354972
H     -1.125156     0.205481     1.113173
H      0.750082    -0.460753    -1.214090
H      0.622381    -1.420398     0.254012
H      1.418226     1.255874     0.208705
9
Iteration 0, Energy=-154.0925383210, |grad|=0.007832
C     -0.914894     0.073602     0.050570
C      0.511706    -0.412016    -0.144405
O      1.449502     0.371579     0.541272
H     -1.082199     1.031469    -0.452616
H     -1.629095    -0.645940    -0.356936
H     -1.125341     0.205410     1.113650
H      0.750294    -0.461340    -1.213555
H      0.621712    -1.420714     0.254386
H      1.418315     1.257950     0.207635
9
Iteration 1, Energy=-154.0925454071, |grad|=0.004221
C     -0.914934     0.073416     0.050687
C      0.511650    -0.412228    -0.144316
O      1.449634     0.372408     0.540857
H     -1.081969     1.031409    -0.452123
H     -1.629193    -0.645771    -0.357561
H     -1.125423     0.205307     1.113781
H      0.750357    -0.461540    -1.213423
H      0.621501    -1.420738     0.254490
H      1.418377     1.257738     0.207607
9
Iteration 2, Energy=-154.0925551319, |grad|=0.002713
C     -0.915125     0.072458     0.051244
C      0.511608    -0.412641    -0.143887
O      1.450101     0.374270     0.539433
H     -1.080851     1.031161    -0.449774
H     -1.629661    -0.644939    -0.360537
H     -1.125832     0.204779     1.114409
H      0.750630    -0.462541    -1.212761
H      0.620583    -1.420964     0.255117
H      1.418547     1.258416     0.206757
9
Iteration 3, Energy=-154.0925603090, |grad|=0.003471
C     -0.915284     0.071804     0.051666
C      0.511593    -0.412839    -0.143510
O      1.450410     0.375290     0.538432
H     -1.079820     1.031250    -0.447703
H     -1.629897    -0.644056    -0.363022
H     -1.126336     0.203875     1.114863
H      0.750758    -0.463558    -1.212271
H      0.620047    -1.421081     0.255909
H      1.418528     1.259317     0.205636
9
Iteration 4, Energy=-154.0925836736, |grad|=0.006223
C     -0.915185     0.071015     0.052570
C      0.511572    -0.413495    -0.142376
O      1.450790     0.378564     0.535451
H     -1.076106     1.033818    -0.440671
H     -1.629773    -0.640286    -0.370702
H     -1.129124     0.197836     1.115962
H      0.750357    -0.467840    -1.210968
H      0.619913    -1.420620     0.260031
H      1.417555     1.261010     0.200702
9
Iteration 0, Energy=-153.9041276439, |grad|=1.142717
C     -1.053455    -0.052196    -0.057501
C      0.387919    -0.221539    -0.089050
O      1.176978     0.224784     0.637673
H     -1.457013     0.633975    -0.633223
H     -1.693321    -0.962570     0.121759
H     -1.171031     0.496439     0.911163
H      0.687406    -0.240609    -1.135774
H      0.690028    -1.526110     0.055970
H      1.932490     1.147825     0.288982
9
Iteration -1, Energy=-154.0925836736, |grad|=0.006223
C     -0.915185     0.071015     0.052570
C      0.511572    -0.413495    -0.142376
O      1.450790     0.378564     0.535451
H     -1.076106     1.033818    -0.440671
H     -1.629773    -0.640286    -0.370702
H     -1.129124     0.197836     1.115962
H      0.750357    -0.467840    -1.210968
H      0.619913    -1.420620     0.260031
H      1.417555     1.261010     0.200702
9
Iteration 0, Energy=-154.0925881805, |grad|=0.006546
C     -0.915163     0.071283     0.052397
C      0.511770    -0.413102    -0.142319
O      1.450521     0.376807     0.536038
H     -1.076029     1.034504    -0.440658
H     -1.629453    -0.639991    -0.370453
H     -1.129411     0.196973     1.115784
H      0.750110    -0.468091    -1.211084
H      0.620454    -1.420401     0.260515
H      1.417201     1.262017     0.199779
9
Iteration 1, Energy=-154.0925927796, |grad|=0.003495
C     -0.915108     0.071421     0.052360
C      0.511703    -0.413257    -0.142330
O      1.450520     0.377371     0.535912
H     -1.076004     1.034694    -0.440624
H     -1.629383    -0.639925    -0.370425
H     -1.129504     0.196711     1.115739
H      0.750044    -0.468158    -1.211111
H      0.620575    -1.420302     0.260622
H      1.417157     1.261444     0.199857
9
Iteration 2, Energy=-154.0925983422, |grad|=0.002617
C     -0.914942     0.071912     0.052180
C      0.511647    -0.413399    -0.142328
O      1.450372     0.377796     0.535909
H     -1.075878     1.035545    -0.440487
H     -1.629054    -0.639594    -0.370279
H     -1.129907     0.195562     1.115540
H      0.749744    -0.468483    -1.211223
H      0.621167    -1.419949     0.261180
H      1.416851     1.260611     0.199507
9
Iteration 3, Energy=-154.0926044074, |grad|=0.003295
C     -0.914635     0.072787     0.051852
C      0.511623    -0.413478    -0.142290
O      1.450053     0.377922     0.536044
H     -1.075571     1.037200    -0.440093
H     -1.628444    -0.638903    -0.370155
H     -1.130717     0.193288     1.115187
H      0.749165    -0.469175    -1.211395
H      0.622303    -1.419314     0.262350
H      1.416222     1.259672     0.198499
9
Iteration 4, Energy=-154.0926110929, |grad|=0.002920
C     -0.914383     0.073373     0.051680
C      0.511674    -0.413537    -0.142055
O      1.449840     0.378105     0.535838
H     -1.074832     1.038980    -0.438750
H     -1.627979    -0.637843    -0.371166
H     -1.131783     0.190543     1.115022
H      0.748611    -0.470277    -1.211307
H      0.623261    -1.418720     0.263960
H      1.415591     1.259375     0.196778
9
Iteration 0, Energy=-153.8943130073, |grad|=1.306711
C     -0.853455    -0.052196     0.142499
C      0.387919    -0.221539    -0.089050
O      1.176978     0.224784     0.648368
H     -1.457013     0.633975    -0.633223
H     -1.493321    -0.762570     0.121759
H     -1.171031     0.696439     0.911163
H      0.687406    -0.040609    -1.135774
H      0.690028    -1.326110    -0.144030
H      1.932490     0.947825     0.344113
9
Iteration -1, Energy=-154.0926110929, |grad|=0.002920
C     -0.914383     0.073373     0.051680
C      0.511674    -0.413537    -0.142055
O      1.449840     0.378105     0.535838
H     -1.074832     1.038980    -0.438750
H     -1.627979    -0.637843    -0.371166
H     -1.131783     0.190543     1.115022
H      0.748611    -0.470277    -1.211307
H      0.623261    -1.418720     0.263960
H      1.415591     1.259375     0.196778
9
Iteration 0, Energy=-154.0926128947, |grad|=0.002801
C     -0.914458     0.073172     0.051760
C      0.511740    -0.413409    -0.141965
O      1.449874     0.377676     0.535810
H     -1.074648     1.038950    -0.438346
H     -1.628038    -0.637678    -0.371658
H     -1.131862     0.190434     1.115115
H      0.748652    -0.470441    -1.211188
H      0.623144    -1.418785     0.264119
H      1.415597     1.260080     0.196354
9
Iteration 1, Energy=-154.0926200346, |grad|=0.002077
C     -0.914681     0.072433     0.052156
C      0.511726    -0.413604    -0.141584
O      1.450204     0.378660     0.534849
H     -1.073776     1.038868    -0.436382
H     -1.628328    -0.636914    -0.374042
H     -1.132297     0.189785     1.115548
H      0.748833    -0.471221    -1.210651
H      0.622550    -1.418926     0.264799
H      1.415769     1.260918     0.195307
9
Iteration 2, Energy=-154.0926365455, |grad|=0.003237
C     -0.914522     0.071276     0.053271
C      0.511712    -0.413931    -0.140522
O      1.450636     0.381582     0.532004
H     -1.070676     1.040248    -0.429702
H     -1.628801    -0.633917    -0.381660
H     -1.134709     0.185261     1.116696
H      0.748806    -0.474573    -1.209054
H      0.621825    -1.418846     0.268210
H      1.415728     1.262901     0.190757
9
Iteration 3, Energy=-154.0926465423, |grad|=0.009808
C     -0.916451     0.068273     0.054209
C      0.512155    -0.415993    -0.137448
O      1.451475     0.387071     0.527037
H     -1.064382     1.044989    -0.416611
H     -1.627574    -0.626108    -0.395246
H     -1.140009     0.174296     1.118550
H      0.748243    -0.481688    -1.206718
H      0.621438    -1.417103     0.275444
H      1.415106     1.266263     0.180783
9
Iteration 4, Energy=-154.0926706970, |grad|=0.004975
C     -0.915266     0.069143     0.055062
C      0.511836    -0.415539    -0.137261
O      1.451299     0.388706     0.525599
H     -1.062104     1.047281    -0.411903
H     -1.627630    -0.623879    -0.400155
H     -1.142490     0.168980     1.118720
H      0.747634    -0.484640    -1.205707
H      0.622247    -1.416814     0.278960
H      1.414473     1.266762     0.176684
9
Iteration 0, Energy=-153.8202993172, |grad|=1.448960
C     -0.853455     0.147804     0.142499
C      0.587919    -0.421539    -0.089050
O      1.176978     0.224784     0.637673
H     -1.457013     0.633975    -0.633223
H     -1.493321    -0.962570    -0.078241
H     -1.171031     0.696439     0.911163
H      0.687406    -0.040609    -1.135774
H      0.490028    -1.326110    -0.144030
H      1.932490     1.147825     0.288982
9
Iteration -1, Energy=-154.0926706970, |grad|=0.004975
C     -0.915266     0.069143     0.055062
C      0.511836    -0.415539    -0.137261
O      1.451299     0.388706     0.525599
H     -1.062104     1.047281    -0.411903
H     -1.627630    -0.623879    -0.400155
H     -1.142490     0.168980     1.118720
H      0.747634    -0.484640    -1.205707
H      0.622247    -1.416814     0.278960
H      1.414473     1.266762     0.176684
9
Iteration 0, Energy=-154.0926801346, |grad|=0.005369
C     -0.914468     0.070372     0.054778
C      0.511829    -0.414880    -0.137404
O      1.450736     0.387396     0.526230
H     -1.062234     1.048180    -0.412179
H     -1.627387    -0.623890    -0.399348
H     -1.142966     0.167643     1.118229
H      0.747188    -0.484857    -1.205876
H      0.623283    -1.416535     0.279581
H      1.414019     1.266572     0.175989
9
Iteration 1, Energy=-154.0926886713, |grad|=0.003142
C     -0.914033     0.071337     0.054386
C      0.511802    -0.414857    -0.137469
O      1.450305     0.387356     0.526583
H     -1.062381     1.049380    -0.412508
H     -1.626864    -0.623658    -0.398371
H     -1.143476     0.166158     1.117700
H      0.746700    -0.485070    -1.206108
H      0.624336    -1.415960     0.280141
H      1.413611     1.265314     0.175646
9
Iteration 2, Energy=-154.0926910176, |grad|=0.003247
C     -0.914470     0.071665     0.053867
C      0.511974    -0.415347    -0.137415
O      1.450098     0.387077     0.527283
H     -1.062472     1.051330    -0.412794
H     -1.625786    -0.622855    -0.397238
H     -1.144131     0.164172     1.117060
H      0.746096    -0.485389    -1.206420
H      0.625559    -1.414952     0.280887
H      1.413131     1.264299     0.174772
9
Iteration 3, Energy=-154.0926927773, |grad|=0.001129
C     -0.914104     0.072023     0.053988
C      0.511807    -0.415151    -0.137433
O      1.450135     0.387511     0.527061
H     -1.062397     1.051090    -0.412521
H     -1.626122    -0.623076    -0.397677
H     -1.144187     0.164148     1.117146
H      0.746153    -0.485436    -1.206359
H      0.625500    -1.415189     0.281005
H      1.413215     1.264081     0.174791
9
Iteration 4, Energy=-154.0926931064, |grad|=0.000955
C     -0.914132     0.071950     0.054012
C      0.511829    -0.415128    -0.137374
O      1.450158     0.387542     0.526984
H     -1.062344     1.051050    -0.412359
H     -1.626180    -0.623047    -0.397902
H     -1.144217     0.164138     1.117214
H      0.746185    -0.485466    -1.206312
H      0.625430    -1.415231     0.281052
H      1.413271     1.264192     0.174686
9
Iteration 0, Energy=-153.9630144044, |grad|=1.225737
C     -1.053455     0.147804     0.142499
C      0.387919    -0.366530    -0.089050
O      1.376978     0.424784     0.791461
H     -1.257013     0.833975    -0.633223
H     -1.493321    -0.762570    -0.078241
H     -1.171031     0.496439     0.911163
H      0.687406    -0.240609    -1.135774
H      0.690028    -1.326110     0.055970
H      1.732490     0.947825     0.288982
9
Iteration -1, Energy=-154.0926931064, |grad|=0.000955
C     -0.914132     0.071950     0.054012
C      0.511829    -0.415128    -0.137374
O      1.450158     0.387542     0.526984
H     -1.062344     1.051050    -0.412359
H     -1.626180    -0.623047    -0.397902
H     -1.144217     0.164138     1.117214
H      0.746185    -0.485466    -1.206312
H      0.625430    -1.415231     0.281052
H      1.413271     1.264192     0.174686
9
Iteration 0, Energy=-154.0926936244, |grad|=0.002446
C     -0.914348     0.071610     0.054047
C      0.511977    -0.415144    -0.137194
O      1.450153     0.387388     0.526862
H     -1.062158     1.051265    -0.411792
H     -1.626129    -0.622704    -0.398519
H     -1.144462     0.163740     1.117316
H      0.746190    -0.485647    -1.206116
H      0.625374    -1.415142     0.281349
H      1.413404     1.264633     0.174046
9
Iteration 1, Energy=-154.0926945201, |grad|=0.001789
C     -0.914369     0.071551     0.054093
C      0.511962    -0.415190    -0.137126
O      1.450179     0.387634     0.526716
H     -1.062050     1.051345    -0.411449
H     -1.626148    -0.622563    -0.398898
H     -1.144613     0.163489     1.117359
H      0.746195    -0.485757    -1.206013
H      0.625353    -1.415112     0.281526
H      1.413492     1.264602     0.173791
9
Iteration 2, Energy=-154.0926996189, |grad|=0.002404
C     -0.914642     0.070860     0.054583
C      0.511878    -0.415468    -0.136316
O      1.450398     0.389597     0.525333
H     -1.060812     1.052289    -0.407552
H     -1.626315    -0.620902    -0.403158
H     -1.146358     0.160563     1.117828
H      0.746234    -0.487046    -1.204877
H      0.625179    -1.414799     0.283602
H      1.414437     1.264905     0.170557
9
Iteration 3, Energy=-154.0927029374, |grad|=0.002889
C     -0.914800     0.070488     0.055004
C      0.511732    -0.415494    -0.135565
O      1.450516     0.391002     0.524315
H     -1.059633     1.053244    -0.403912
H     -1.626361    -0.619296    -0.406986
H     -1.148099     0.157540     1.118160
H      0.746205    -0.488374    -1.203955
H      0.625201    -1.414496     0.285661
H      1.415239     1.265386     0.167279
9
Iteration 4, Energy=-154.0927096706, |grad|=0.004595
C     -0.915686     0.069402     0.055828
C      0.511797    -0.415860    -0.133489
O      1.450284     0.394723     0.522082
H     -1.056481     1.057048    -0.394478
H     -1.625372    -0.614165    -0.416180
H     -1.153301     0.148118     1.118678
H      0.745677    -0.492407    -1.201854
H      0.625872    -1.412836     0.291390
H      1.417210     1.265978     0.158022
9
Iteration 0, Energy=-154.0014001466, |grad|=0.797887
C     -1.053455     0.060501     0.142499
C      0.387919    -0.221539    -0.089050
O      1.176978     0.424784     0.837673
H     -1.457013     0.833975    -0.633223
H     -1.493321    -0.762570    -0.078241
H     -1.171031     0.496439     0.911163
H      0.687406    -0.040609    -1.135774
H      0.690028    -1.326110     0.055970
H      1.932490     0.947825     0.288982
9
Iteration -1, Energy=-154.0927096706, |grad|=0.004595
C     -0.915686     0.069402     0.055828
C      0.511797    -0.415860    -0.133489
O      1.450284     0.394723     0.522082
H     -1.056481     1.057048    -0.394478
H     -1.625372    -0.614165    -0.416180
H     -1.153301     0.148118     1.118678
H      0.745677    -0.492407    -1.201854
H      0.625872    -1.412836     0.291390
H      1.417210     1.265978     0.158022
9
Iteration 0, Energy=-154.0927125901, |grad|=0.002731
C     -0.915230     0.069953     0.055833
C      0.511694    -0.415413    -0.133627
O      1.450095     0.393842     0.522514
H     -1.056487     1.057104    -0.394527
H     -1.625422    -0.614307    -0.416031
H     -1.153445     0.147792     1.118573
H      0.745571    -0.492539    -1.201921
H      0.626130    -1.412889     0.291545
H      1.417092     1.266457     0.157642
9
Iteration 1, Energy=-154.0927136849, |grad|=0.001759
C     -0.915152     0.070101     0.055794
C      0.511662    -0.415435    -0.133645
O      1.450027     0.394012     0.522543
H     -1.056497     1.057230    -0.394584
H     -1.625338    -0.614288    -0.415882
H     -1.153517     0.147605     1.118515
H      0.745508    -0.492600    -1.201981
H      0.626237    -1.412810     0.291570
H      1.417070     1.266185     0.157670
9
Iteration 2, Energy=-154.0927155939, |grad|=0.001346
C     -0.914905     0.070622     0.055642
C      0.511619    -0.415401    -0.133719
O      1.449712     0.394160     0.522834
H     -1.056533     1.057787    -0.394821
H     -1.624967    -0.614178    -0.415265
H     -1.153809     0.146834     1.118271
H      0.745242    -0.492859    -1.202206
H      0.626686    -1.412498     0.291696
H      1.416955     1.265533     0.157569
9
Iteration 3, Energy=-154.0927162459, |grad|=0.000753
C     -0.914900     0.070841     0.055535
C      0.511689    -0.415392    -0.133750
O      1.449477     0.394038     0.523124
H     -1.056543     1.058307    -0.394988
H     -1.624626    -0.614031    -0.414821
H     -1.154022     0.146236     1.118090
H      0.745034    -0.493058    -1.202341
H      0.627001    -1.412228     0.291799
H      1.416890     1.265286     0.157352
9
Iteration 4, Energy=-154.0927163646, |grad|=0.000506
C     -0.914766     0.071092     0.055505
C      0.511631    -0.415289    -0.133767
O      1.449380     0.393978     0.523259
H     -1.056513     1.058512    -0.394942
H     -1.624589    -0.614065    -0.414797
H     -1.154155     0.145885     1.118040
H      0.744943    -0.493172    -1.202356
H      0.627150    -1.412180     0.291919
H      1.416918     1.265238     0.157139
9
Iteration 0, Energy=-153.9277036538, |grad|=0.897017
C     -0.853455     0.147804     0.142499
C      0.387919    -0.221539    -0.089050
O      1.176978     0.424784     0.837673
H     -1.457013     0.833975    -0.654905
H     -1.493321    -0.962570     0.121759
H     -1.171031     0.696439     0.911163
H      0.887406    -0.040609    -1.335774
H      0.690028    -1.326110    -0.144030
H      1.932490     1.147825     0.288982
9
Iteration -1, Energy=-154.0927163646, |grad|=0.000506
C     -0.914766     0.071092     0.055505
C      0.511631    -0.415289    -0.133767
O      1.449380     0.393978     0.523259
H     -1.056513     1.058512    -0.394942
H     -1.624589    -0.614065    -0.414797
H     -1.154155     0.145885     1.118040
H      0.744943    -0.493172    -1.202356
H      0.627150    -1.412180     0.291919
H      1.416918     1.265238     0.157139
9
Iteration 0, Energy=-154.0927164072, |grad|=0.000335
C     -0.914818     0.071039     0.055500
C      0.511650    -0.415303    -0.133746
O      1.449381     0.393982     0.523248
H     -1.056505     1.058533    -0.394919
H     -1.624570    -0.614038    -0.414818
H     -1.154158     0.145873     1.118043
H      0.744945    -0.493174    -1.202345
H      0.627137    -1.412167     0.291925
H      1.416938     1.265255     0.157112
9
Iteration 0, Energy=-153.9285696513, |grad|=0.872937
C     -1.051213     0.147804     0.142499
C      0.499560    -0.221539    -0.089050
O      1.176978     0.224784     0.837673
H     -1.257013     0.833975    -0.633223
H     -1.646583    -0.962570    -0.078241
H     -1.171031     0.496439     1.054248
H      0.687406    -0.240609    -1.135774
H      0.690028    -1.380215     0.055970
H      1.932490     1.147825     0.288982
