9
Iteration -1, Energy=-154.0837996503, |grad|=0.044117
C     -0.977020     0.054531     0.039344
C      0.487693    -0.332548    -0.192952
O      1.302254     0.336299     0.743792
H     -1.353582     0.729531    -0.729129
H     -1.591671    -0.850511     0.025441
H     -1.069217     0.581118     0.999619
H      0.788253    -0.138478    -1.230198
H      0.594696    -1.412625    -0.042175
H      1.818594     1.032682     0.386258
9
Iteration 0, Energy=-154.0843833249, |grad|=0.059413
C     -0.977280     0.053879     0.035312
C      0.484312    -0.325026    -0.187773
O      1.305233     0.320355     0.751886
H     -1.354690     0.731318    -0.731808
H     -1.597106    -0.844075     0.028915
H     -1.069673     0.569254     0.994917
H      0.790027    -0.136048    -1.225589
H      0.600639    -1.406722    -0.038040
H      1.818537     1.037066     0.372179
9
Iteration 1, Energy=-154.0849708820, |grad|=0.035094
C     -0.978177     0.054365     0.032267
C      0.483032    -0.324225    -0.185418
O      1.313796     0.319380     0.752837
H     -1.355398     0.732475    -0.733440
H     -1.600947    -0.840538     0.030813
H     -1.070298     0.562238     0.992956
H      0.791269    -0.133974    -1.221992
H      0.603824    -1.402234    -0.035695
H      1.812900     1.032512     0.367673
9
Iteration 2, Energy=-154.0855525641, |grad|=0.015882
C     -0.980572     0.055962     0.025149
C      0.485382    -0.322798    -0.179253
O      1.331056     0.312521     0.753421
H     -1.357325     0.736354    -0.738314
H     -1.612045    -0.832437     0.034509
H     -1.072982     0.545639     0.990668
H      0.794820    -0.127776    -1.211446
H      0.611494    -1.392164    -0.028851
H      1.800172     1.024698     0.354117
9
Iteration 3, Energy=-154.0857041185, |grad|=0.012918
C     -0.979866     0.055951     0.024226
C      0.487718    -0.323802    -0.177507
O      1.336536     0.309057     0.751367
H     -1.357812     0.739262    -0.740843
H     -1.617745    -0.830150     0.033355
H     -1.075975     0.541528     0.993742
H      0.798074    -0.123818    -1.206927
H      0.613990    -1.392890    -0.024920
H      1.795081     1.024862     0.347508
9
Iteration 4, Energy=-154.0858879114, |grad|=0.019755
C     -0.984349     0.059975     0.025899
C      0.492191    -0.332712    -0.172545
O      1.350274     0.301923     0.745186
H     -1.353411     0.743306    -0.740109
H     -1.629306    -0.822421     0.024813
H     -1.085134     0.532524     1.000771
H      0.809041    -0.114233    -1.198539
H      0.618760    -1.399964    -0.015309
H      1.781934     1.031603     0.329834
9
Iteration 0, Energy=-154.0038802321, |grad|=0.866488
C     -1.030798     0.017194    -0.033921
C      0.543264    -0.297346    -0.221354
O      1.185952     0.277830     0.639177
H     -1.279173     0.667624    -0.670826
H     -1.633544    -0.897556    -0.016649
H     -1.076285     0.580001     1.050350
H      0.693213    -0.156023    -1.332955
H      0.684758    -1.347364    -0.026393
H      1.836310     1.033201     0.462806
9
Iteration -1, Energy=-154.0858879114, |grad|=0.019755
C     -0.984349     0.059975     0.025899
C      0.492191    -0.332712    -0.172545
O      1.350274     0.301923     0.745186
H     -1.353411     0.743306    -0.740109
H     -1.629306    -0.822421     0.024813
H     -1.085134     0.532524     1.000771
H      0.809041    -0.114233    -1.198539
H      0.618760    -1.399964    -0.015309
H      1.781934     1.031603     0.329834
9
Iteration 0, Energy=-154.0859565451, |grad|=0.009760
C     -0.981954     0.057697     0.026682
C      0.490914    -0.330743    -0.173223
O      1.350611     0.302731     0.744626
H     -1.352888     0.744321    -0.739948
H     -1.629267    -0.822193     0.023716
H     -1.085654     0.533271     1.001545
H      0.808783    -0.115457    -1.198207
H      0.618427    -1.401522    -0.015309
H      1.781028     1.031895     0.330117
9
Iteration 1, Energy=-154.0859975546, |grad|=0.009758
C     -0.979824     0.056415     0.027604
C      0.490388    -0.330369    -0.173284
O      1.350379     0.303304     0.743840
H     -1.351326     0.745188    -0.738538
H     -1.629111    -0.822165     0.021705
H     -1.086398     0.534042     1.002367
H      0.808331    -0.117405    -1.198184
H      0.617654    -1.402515    -0.015595
H      1.779906     1.033506     0.330084
9
Iteration 2, Energy=-154.0860846868, |grad|=0.014129
C     -0.976153     0.054511     0.030372
C      0.490270    -0.331176    -0.173151
O      1.350274     0.305554     0.741346
H     -1.345762     0.747466    -0.733449
H     -1.628222    -0.821957     0.015372
H     -1.088386     0.535496     1.004344
H      0.806840    -0.123462    -1.198516
H      0.615292    -1.404803    -0.016344
H      1.775846     1.038371     0.330025
9
Iteration 3, Energy=-154.0861938558, |grad|=0.019303
C     -0.972940     0.053201     0.034639
C      0.490891    -0.333048    -0.171924
O      1.350322     0.306741     0.738365
H     -1.335240     0.752593    -0.724820
H     -1.626393    -0.821279     0.004225
H     -1.091206     0.535669     1.007862
H      0.804117    -0.134328    -1.200232
H      0.612077    -1.408864    -0.016150
H      1.768372     1.049314     0.328034
9
Iteration 4, Energy=-154.0863281009, |grad|=0.019805
C     -0.969211     0.053445     0.040207
C      0.491693    -0.339449    -0.169597
O      1.355035     0.312665     0.731446
H     -1.317962     0.762525    -0.711517
H     -1.623841    -0.820179    -0.013760
H     -1.095249     0.533216     1.014150
H      0.799524    -0.151887    -1.203281
H      0.607655    -1.413863    -0.014183
H      1.752356     1.063527     0.326535
9
Iteration 0, Energy=-154.0700704055, |grad|=0.256955
C     -0.983302     0.069239     0.030905
C      0.562854    -0.329484    -0.186316
O      1.364231     0.307988     0.731795
H     -1.432359     0.703627    -0.809266
H     -1.689019    -0.813305    -0.046614
H     -1.083395     0.524011     1.019905
H      0.884244    -0.077374    -1.273304
H      0.678663    -1.333395    -0.012462
H      1.746510     1.087051     0.296183
9
Iteration -1, Energy=-154.0863281009, |grad|=0.019805
C     -0.969211     0.053445     0.040207
C      0.491693    -0.339449    -0.169597
O      1.355035     0.312665     0.731446
H     -1.317962     0.762525    -0.711517
H     -1.623841    -0.820179    -0.013760
H     -1.095249     0.533216     1.014150
H      0.799524    -0.151887    -1.203281
H      0.607655    -1.413863    -0.014183
H      1.752356     1.063527     0.326535
9
Iteration 0, Energy=-154.0864181960, |grad|=0.026360
C     -0.973739     0.056865     0.038188
C      0.494543    -0.340611    -0.168995
O      1.355158     0.306477     0.732479
H     -1.317796     0.765164    -0.713003
H     -1.624087    -0.818925    -0.013094
H     -1.093940     0.527729     1.014485
H      0.798953    -0.151692    -1.203085
H      0.609709    -1.412197    -0.010183
H      1.751199     1.067189     0.323207
9
Iteration 1, Energy=-154.0865155175, |grad|=0.015555
C     -0.973881     0.057293     0.037266
C      0.493912    -0.340773    -0.168957
O      1.357492     0.307167     0.731519
H     -1.317993     0.766916    -0.714035
H     -1.624502    -0.818362    -0.012978
H     -1.093511     0.525440     1.015058
H      0.798879    -0.151702    -1.203036
H      0.610589    -1.411990    -0.008274
H      1.749015     1.066010     0.323436
9
Iteration 2, Energy=-154.0866646141, |grad|=0.011495
C     -0.974536     0.059362     0.033651
C      0.492651    -0.340910    -0.168521
O      1.364038     0.305325     0.729015
H     -1.318572     0.773902    -0.717738
H     -1.626277    -0.815959    -0.012843
H     -1.091780     0.515979     1.017321
H      0.798483    -0.152027    -1.202738
H      0.614096    -1.411021    -0.000242
H      1.741897     1.065348     0.322096
9
Iteration 3, Energy=-154.0867353348, |grad|=0.010806
C     -0.973285     0.060468     0.031431
C      0.492074    -0.341193    -0.168263
O      1.367653     0.302363     0.726813
H     -1.318528     0.779122    -0.719068
H     -1.628001    -0.813683    -0.014200
H     -1.090764     0.508984     1.019219
H      0.798318    -0.153245    -1.202371
H      0.615989    -1.410325     0.006137
H      1.736543     1.067510     0.320302
9
Iteration 4, Energy=-154.0868700267, |grad|=0.014273
C     -0.972566     0.063465     0.028121
C      0.494287    -0.344635    -0.168175
O      1.375511     0.297910     0.719619
H     -1.315762     0.789286    -0.716611
H     -1.631209    -0.806684    -0.021327
H     -1.088682     0.493734     1.023014
H      0.798302    -0.158928    -1.201944
H      0.617708    -1.408978     0.020301
H      1.722409     1.074830     0.317002
9
Iteration 0, Energy=-154.0026241341, |grad|=0.940170
C     -0.987446    -0.002233     0.093549
C      0.516310    -0.296105    -0.092500
O      1.207489     0.302553     0.653548
H     -1.265485     0.732010    -0.699740
H     -1.544483    -0.955039    -0.006425
H     -1.127640     0.574493     1.083158
H      0.740205    -0.172148    -1.320418
H      0.546382    -1.437068     0.011177
H      1.765924     1.139959     0.428676
9
Iteration -1, Energy=-154.0868700267, |grad|=0.014273
C     -0.972566     0.063465     0.028121
C      0.494287    -0.344635    -0.168175
O      1.375511     0.297910     0.719619
H     -1.315762     0.789286    -0.716611
H     -1.631209    -0.806684    -0.021327
H     -1.088682     0.493734     1.023014
H      0.798302    -0.158928    -1.201944
H      0.617708    -1.408978     0.020301
H      1.722409     1.074830     0.317002
9
Iteration 0, Energy=-154.0869499029, |grad|=0.023998
C     -0.968993     0.061177     0.031068
C      0.493342    -0.343214    -0.168027
O      1.373605     0.296820     0.719891
H     -1.313116     0.789536    -0.711749
H     -1.631514    -0.806235    -0.026696
H     -1.089309     0.495670     1.023827
H      0.799216    -0.163435    -1.203842
H      0.615076    -1.412188     0.019855
H      1.721693     1.081869     0.315673
9
Iteration 1, Energy=-154.0870470516, |grad|=0.014857
C     -0.968112     0.060579     0.032380
C      0.493525    -0.344457    -0.168165
O      1.374200     0.299612     0.718543
H     -1.311215     0.789670    -0.708464
H     -1.631466    -0.805879    -0.030021
H     -1.089599     0.496555     1.024486
H      0.799602    -0.166283    -1.204701
H      0.613318    -1.413178     0.019466
H      1.719746     1.083381     0.316477
9
Iteration 2, Energy=-154.0871875099, |grad|=0.010650
C     -0.966246     0.059010     0.036431
C      0.495713    -0.348312    -0.168611
O      1.374861     0.305733     0.714565
H     -1.304411     0.791170    -0.697606
H     -1.631097    -0.804536    -0.041338
H     -1.090355     0.498555     1.027139
H      0.800426    -0.176559    -1.207021
H      0.607806    -1.416164     0.018845
H      1.713302     1.091103     0.317597
9
Iteration 3, Energy=-154.0872659718, |grad|=0.012421
C     -0.965389     0.058629     0.037743
C      0.496659    -0.349725    -0.168514
O      1.375982     0.307265     0.711926
H     -1.300358     0.795071    -0.693142
H     -1.630832    -0.803715    -0.047396
H     -1.090306     0.497026     1.029523
H      0.800216    -0.183171    -1.207667
H      0.606159    -1.417517     0.020266
H      1.707869     1.096137     0.317261
9
Iteration 4, Energy=-154.0879345582, |grad|=0.032345
C     -0.954722     0.062880     0.046477
C      0.500140    -0.367773    -0.163690
O      1.393081     0.317854     0.683295
H     -1.255817     0.842707    -0.647501
H     -1.628484    -0.793125    -0.110495
H     -1.088388     0.468120     1.054424
H      0.796905    -0.253316    -1.216482
H      0.594281    -1.429024     0.043693
H      1.643003     1.151677     0.310279
9
Iteration 0, Energy=-154.0249508757, |grad|=0.537161
C     -0.967983     0.064917     0.124253
C      0.491292    -0.255202    -0.190500
O      1.275928     0.263068     0.638664
H     -1.300009     0.827963    -0.752402
H     -1.624703    -0.924069     0.004043
H     -1.068842     0.615699     1.102157
H      0.720828    -0.237687    -1.157734
H      0.681247    -1.419031    -0.112383
H      1.737232     0.986855     0.373889
9
Iteration -1, Energy=-154.0879345582, |grad|=0.032345
C     -0.954722     0.062880     0.046477
C      0.500140    -0.367773    -0.163690
O      1.393081     0.317854     0.683295
H     -1.255817     0.842707    -0.647501
H     -1.628484    -0.793125    -0.110495
H     -1.088388     0.468120     1.054424
H      0.796905    -0.253316    -1.216482
H      0.594281    -1.429024     0.043693
H      1.643003     1.151677     0.310279
9
Iteration 0, Energy=-154.0882287152, |grad|=0.026992
C     -0.955042     0.058919     0.044642
C      0.499888    -0.360733    -0.166618
O      1.394771     0.314746     0.681468
H     -1.256325     0.846982    -0.650912
H     -1.626830    -0.787294    -0.108110
H     -1.088065     0.461721     1.053907
H      0.794944    -0.252255    -1.213839
H      0.597679    -1.430832     0.050250
H      1.638980     1.148746     0.309212
9
Iteration 1, Energy=-154.0884518122, |grad|=0.021363
C     -0.954425     0.061247     0.041988
C      0.499606    -0.361499    -0.166045
O      1.396366     0.312239     0.679577
H     -1.256471     0.849500    -0.652612
H     -1.626912    -0.784205    -0.106511
H     -1.087699     0.455006     1.053214
H      0.793591    -0.250600    -1.213385
H      0.600617    -1.428630     0.055618
H      1.635327     1.146943     0.308156
9
Iteration 2, Energy=-154.0886885192, |grad|=0.037733
C     -0.949261     0.069988     0.034862
C      0.499791    -0.367100    -0.167530
O      1.405068     0.299324     0.676932
H     -1.255072     0.863129    -0.658373
H     -1.632055    -0.775026    -0.106852
H     -1.086270     0.429078     1.055204
H      0.788476    -0.247342    -1.214059
H      0.609943    -1.421958     0.079466
H      1.619380     1.149906     0.300350
9
Iteration 3, Energy=-154.0888259896, |grad|=0.025512
C     -0.950662     0.071295     0.032129
C      0.500717    -0.369413    -0.164719
O      1.409283     0.305612     0.670332
H     -1.253285     0.865990    -0.657554
H     -1.632507    -0.771148    -0.108567
H     -1.085546     0.422696     1.056323
H      0.787878    -0.247726    -1.215650
H      0.611295    -1.421020     0.085080
H      1.612826     1.143714     0.302626
9
Iteration 4, Energy=-154.0889089519, |grad|=0.010397
C     -0.951083     0.069786     0.034125
C      0.501060    -0.368089    -0.164991
O      1.407199     0.304803     0.671862
H     -1.252947     0.864174    -0.656014
H     -1.632240    -0.772877    -0.109783
H     -1.085762     0.426912     1.056371
H      0.788738    -0.249177    -1.215591
H      0.609459    -1.422589     0.081614
H      1.615575     1.147057     0.302407
9
Iteration 0, Energy=-154.0426076436, |grad|=0.364790
C     -1.024046     0.066824     0.059777
C      0.410040    -0.378623    -0.107741
O      1.318867     0.394640     0.670824
H     -1.292563     0.829585    -0.668004
H     -1.495533    -0.916438    -0.019466
H     -1.059257     0.588821     1.058098
H      0.718509    -0.104395    -1.290116
H      0.581453    -1.465358    -0.005429
H      1.925983     1.045554     0.476396
9
Iteration -1, Energy=-154.0889089519, |grad|=0.010397
C     -0.951083     0.069786     0.034125
C      0.501060    -0.368089    -0.164991
O      1.407199     0.304803     0.671862
H     -1.252947     0.864174    -0.656014
H     -1.632240    -0.772877    -0.109783
H     -1.085762     0.426912     1.056371
H      0.788738    -0.249177    -1.215591
H      0.609459    -1.422589     0.081614
H      1.615575     1.147057     0.302407
9
Iteration 0, Energy=-154.0889789616, |grad|=0.022953
C     -0.951175     0.067619     0.036628
C      0.501645    -0.366182    -0.164979
O      1.406460     0.303759     0.668775
H     -1.248757     0.865263    -0.650395
H     -1.632442    -0.770739    -0.116483
H     -1.085485     0.426264     1.057394
H      0.789216    -0.255176    -1.215097
H      0.607631    -1.425150     0.082848
H      1.612908     1.154341     0.301308
9
Iteration 1, Energy=-154.0890799686, |grad|=0.016298
C     -0.950622     0.066903     0.037904
C      0.501357    -0.367366    -0.164720
O      1.407400     0.306531     0.665806
H     -1.245694     0.866364    -0.646220
H     -1.632887    -0.769578    -0.121505
H     -1.085383     0.425494     1.058562
H      0.789533    -0.259518    -1.215138
H      0.606237    -1.425909     0.083631
H      1.610058     1.157079     0.301681
9
Iteration 2, Energy=-154.0893279354, |grad|=0.015040
C     -0.946837     0.064367     0.042812
C      0.500718    -0.374148    -0.163542
O      1.411823     0.316111     0.653885
H     -1.231153     0.874117    -0.627317
H     -1.635413    -0.764325    -0.145274
H     -1.085197     0.419944     1.065353
H      0.790083    -0.280588    -1.215930
H      0.600491    -1.428371     0.088836
H      1.595486     1.172894     0.301179
9
Iteration 3, Energy=-154.0895194540, |grad|=0.020307
C     -0.944589     0.062727     0.044954
C      0.502229    -0.376885    -0.163430
O      1.416292     0.321893     0.645716
H     -1.220267     0.884667    -0.615524
H     -1.636463    -0.758938    -0.161663
H     -1.085310     0.411287     1.071139
H      0.788550    -0.296744    -1.217055
H      0.598500    -1.430909     0.096498
H      1.581058     1.182902     0.299365
9
Iteration 4, Energy=-154.0902686462, |grad|=0.035122
C     -0.930943     0.062666     0.052642
C      0.510630    -0.396736    -0.158150
O      1.440755     0.346467     0.600617
H     -1.159279     0.946921    -0.550861
H     -1.641367    -0.727735    -0.250054
H     -1.086309     0.353872     1.101761
H      0.778113    -0.385076    -1.225996
H      0.592104    -1.440291     0.144449
H      1.496295     1.239912     0.285592
9
Iteration 0, Energy=-154.0477841762, |grad|=0.431296
C     -0.898716     0.131171     0.025318
C      0.546828    -0.394312    -0.197511
O      1.338423     0.262749     0.707643
H     -1.267290     0.818934    -0.729054
H     -1.494630    -0.787151     0.096205
H     -1.077208     0.673748     1.032548
H      0.731808    -0.164766    -1.334190
H      0.491785    -1.388499    -0.058582
H      1.811039     1.147012     0.359521
9
Iteration -1, Energy=-154.0902686462, |grad|=0.035122
C     -0.930943     0.062666     0.052642
C      0.510630    -0.396736    -0.158150
O      1.440755     0.346467     0.600617
H     -1.159279     0.946921    -0.550861
H     -1.641367    -0.727735    -0.250054
H     -1.086309     0.353872     1.101761
H      0.778113    -0.385076    -1.225996
H      0.592104    -1.440291     0.144449
H      1.496295     1.239912     0.285592
9
Iteration 0, Energy=-154.0908939526, |grad|=0.027020
C     -0.933232     0.067181     0.047306
C      0.510518    -0.391851    -0.160443
O      1.436716     0.339868     0.595994
H     -1.158590     0.947621    -0.551236
H     -1.633798    -0.717626    -0.242212
H     -1.087198     0.341715     1.094880
H      0.774675    -0.381509    -1.221426
H      0.599723    -1.437524     0.153597
H      1.491186     1.232126     0.283540
9
Iteration 1, Energy=-154.0912333381, |grad|=0.015511
C     -0.926080     0.073231     0.043692
C      0.504732    -0.395801    -0.158627
O      1.435607     0.335098     0.593327
H     -1.159289     0.953370    -0.554476
H     -1.630182    -0.710925    -0.235930
H     -1.088985     0.327343     1.089327
H      0.771489    -0.376780    -1.221184
H      0.608039    -1.429416     0.163406
H      1.484668     1.223881     0.280465
9
Iteration 2, Energy=-154.0913111146, |grad|=0.016609
C     -0.924448     0.073822     0.041918
C      0.506836    -0.395474    -0.160338
O      1.437163     0.330947     0.595295
H     -1.158840     0.959375    -0.557004
H     -1.631017    -0.709660    -0.235817
H     -1.090097     0.321346     1.091473
H      0.769013    -0.375679    -1.222102
H      0.610782    -1.428523     0.169787
H      1.480608     1.223847     0.276789
9
Iteration 3, Energy=-154.0913631954, |grad|=0.007699
C     -0.925039     0.074586     0.041549
C      0.508577    -0.396338    -0.160122
O      1.438637     0.333040     0.595176
H     -1.157998     0.961579    -0.557243
H     -1.632048    -0.709726    -0.237197
H     -1.090348     0.319246     1.093022
H      0.768261    -0.375770    -1.223462
H      0.611109    -1.428654     0.172122
H      1.478849     1.222036     0.276156
9
Iteration 4, Energy=-154.0913906250, |grad|=0.007264
C     -0.925764     0.075410     0.041692
C      0.509873    -0.397021    -0.159112
O      1.439982     0.334168     0.594717
H     -1.156555     0.963415    -0.556566
H     -1.633097    -0.709472    -0.239492
H     -1.090497     0.316915     1.094215
H      0.767779    -0.376344    -1.224978
H      0.611281    -1.428923     0.174544
H      1.476999     1.221852     0.274979
9
Iteration 0, Energy=-154.0546337244, |grad|=0.326044
C     -0.918592     0.012112     0.080963
C      0.542093    -0.243362    -0.098533
O      1.325784     0.413715     0.779753
H     -1.299634     0.813320    -0.671319
H     -1.516623    -0.923905    -0.007071
H     -1.071989     0.583766     1.109183
H      0.841470    -0.146993    -1.167678
H      0.526425    -1.435871    -0.083115
H      1.797118     1.133413     0.476866
9
Iteration -1, Energy=-154.0913906250, |grad|=0.007264
C     -0.925764     0.075410     0.041692
C      0.509873    -0.397021    -0.159112
O      1.439982     0.334168     0.594717
H     -1.156555     0.963415    -0.556566
H     -1.633097    -0.709472    -0.239492
H     -1.090497     0.316915     1.094215
H      0.767779    -0.376344    -1.224978
H      0.611281    -1.428923     0.174544
H      1.476999     1.221852     0.274979
9
Iteration 0, Energy=-154.0914223721, |grad|=0.016537
C     -0.925512     0.074006     0.043306
C      0.507270    -0.396375    -0.158457
O      1.440202     0.333119     0.592075
H     -1.153180     0.963134    -0.551954
H     -1.632666    -0.706509    -0.244295
H     -1.090637     0.314645     1.093524
H      0.768164    -0.379115    -1.223442
H      0.610880    -1.429494     0.176399
H      1.475479     1.226588     0.272845
9
Iteration 1, Energy=-154.0914682519, |grad|=0.010123
C     -0.925383     0.073590     0.043722
C      0.506650    -0.397213    -0.158079
O      1.440525     0.335323     0.589904
H     -1.151270     0.963383    -0.549392
H     -1.632689    -0.705111    -0.247164
H     -1.090890     0.313242     1.093838
H      0.768125    -0.380740    -1.222661
H      0.610502    -1.429406     0.177405
H      1.474429     1.226931     0.272427
9
Iteration 2, Energy=-154.0915478200, |grad|=0.012005
C     -0.924740     0.072058     0.045060
C      0.505831    -0.399422    -0.156831
O      1.441327     0.340472     0.583282
H     -1.144579     0.965303    -0.540778
H     -1.633159    -0.700525    -0.257405
H     -1.092024     0.307969     1.095642
H      0.767594    -0.386736    -1.220223
H      0.609334    -1.429281     0.181429
H      1.470416     1.230162     0.269824
9
Iteration 3, Energy=-154.0916355192, |grad|=0.016723
C     -0.923616     0.070309     0.046588
C      0.506387    -0.401682    -0.155424
O      1.442517     0.345581     0.576380
H     -1.136330     0.969761    -0.530830
H     -1.634284    -0.695349    -0.270260
H     -1.093903     0.300493     1.098874
H      0.766289    -0.394699    -1.218190
H      0.608294    -1.429363     0.187317
H      1.464648     1.234948     0.265544
9
Iteration 4, Energy=-154.0918804800, |grad|=0.023599
C     -0.920526     0.066664     0.050879
C      0.508543    -0.407814    -0.150843
O      1.447672     0.360003     0.558048
H     -1.110604     0.987488    -0.500843
H     -1.637172    -0.678949    -0.309264
H     -1.100735     0.273690     1.108883
H      0.761173    -0.420669    -1.215171
H      0.607219    -1.430027     0.208118
H      1.444430     1.249615     0.250191
9
Iteration 0, Energy=-153.9995841646, |grad|=0.635203
C     -0.881517     0.144698     0.125442
C      0.414786    -0.340635    -0.101679
O      1.185459     0.390748     0.783099
H     -1.448637     0.684735    -0.755539
H     -1.679893    -0.938579    -0.053510
H     -1.164803     0.605918     0.933327
H      0.690553    -0.201354    -1.167818
H      0.675742    -1.332087    -0.082658
H      1.779853     1.062170     0.347686
9
Iteration -1, Energy=-154.0918804800, |grad|=0.023599
C     -0.920526     0.066664     0.050879
C      0.508543    -0.407814    -0.150843
O      1.447672     0.360003     0.558048
H     -1.110604     0.987488    -0.500843
H     -1.637172    -0.678949    -0.309264
H     -1.100735     0.273690     1.108883
H      0.761173    -0.420669    -1.215171
H      0.607219    -1.430027     0.208118
H      1.444430     1.249615     0.250191
9
Iteration 0, Energy=-154.0919655475, |grad|=0.018392
C     -0.920668     0.067471     0.050497
C      0.509466    -0.405858    -0.151157
O      1.447449     0.354767     0.560641
H     -1.110778     0.989854    -0.501539
H     -1.636345    -0.678328    -0.308027
H     -1.101478     0.271399     1.108441
H      0.760368    -0.421364    -1.216509
H      0.608922    -1.430272     0.209891
H      1.443064     1.252332     0.247761
9
Iteration 1, Energy=-154.0920162391, |grad|=0.012822
C     -0.920519     0.068365     0.050103
C      0.509630    -0.406128    -0.151242
O      1.447571     0.355560     0.561088
H     -1.110898     0.991192    -0.501804
H     -1.635899    -0.678034    -0.307374
H     -1.101975     0.269956     1.108252
H      0.759909    -0.421716    -1.217278
H      0.609825    -1.429933     0.210717
H      1.442357     1.250737     0.247537
9
Iteration 2, Energy=-154.0921305251, |grad|=0.006788
C     -0.919334     0.073102     0.047828
C      0.510904    -0.406817    -0.151620
O      1.447490     0.356195     0.563792
H     -1.111442     0.998607    -0.502908
H     -1.633454    -0.676234    -0.304077
H     -1.104811     0.261859     1.107288
H      0.757374    -0.423821    -1.220910
H      0.614910    -1.427953     0.215495
H      1.438363     1.245061     0.245113
9
Iteration 3, Energy=-154.0921535091, |grad|=0.004914
C     -0.918131     0.074295     0.047086
C      0.511057    -0.407189    -0.151788
O      1.446644     0.355414     0.563276
H     -1.111176     1.001420    -0.502027
H     -1.632466    -0.674906    -0.304091
H     -1.106052     0.258399     1.106929
H      0.756616    -0.425086    -1.220615
H      0.616687    -1.426657     0.217602
H      1.436820     1.244310     0.243629
9
Iteration 4, Energy=-154.0921869467, |grad|=0.005945
C     -0.917679     0.075444     0.046422
C      0.510520    -0.406914    -0.151401
O      1.446229     0.355150     0.561198
H     -1.109340     1.006018    -0.498128
H     -1.630605    -0.671454    -0.306701
H     -1.108044     0.251698     1.106258
H      0.755917    -0.428574    -1.220121
H      0.619193    -1.425472     0.222232
H      1.433809     1.244106     0.240242
9
Iteration 0, Energy=-154.0398904348, |grad|=0.522232
C     -0.875080     0.047522     0.068256
C      0.519793    -0.406076    -0.148716
O      1.359037     0.296571     0.689469
H     -1.304288     0.650877    -0.740358
H     -1.512925    -0.946642    -0.009404
H     -1.167732     0.513995     1.109898
H      0.768480    -0.092009    -1.166144
H      0.509530    -1.358489    -0.143503
H      1.914224     1.001891     0.364812
9
Iteration -1, Energy=-154.0921869467, |grad|=0.005945
C     -0.917679     0.075444     0.046422
C      0.510520    -0.406914    -0.151401
O      1.446229     0.355150     0.561198
H     -1.109340     1.006018    -0.498128
H     -1.630605    -0.671454    -0.306701
H     -1.108044     0.251698     1.106258
H      0.755917    -0.428574    -1.220121
H      0.619193    -1.425472     0.222232
H      1.433809     1.244106     0.240242
9
Iteration 0, Energy=-154.0922042526, |grad|=0.008397
C     -0.917227     0.075589     0.047145
C      0.510715    -0.408954    -0.151079
O      1.447089     0.357086     0.560208
H     -1.108316     1.005871    -0.496100
H     -1.631910    -0.671735    -0.309939
H     -1.108223     0.251453     1.107308
H      0.756138    -0.429584    -1.219645
H      0.617968    -1.424999     0.222409
H      1.433767     1.245274     0.239692
9
Iteration 1, Energy=-154.0922236261, |grad|=0.006312
C     -0.917371     0.074554     0.047635
C      0.510987    -0.408882    -0.150871
O      1.447635     0.357661     0.559337
H     -1.107262     1.006084    -0.494296
H     -1.632527    -0.671258    -0.312635
H     -1.108401     0.251059     1.108187
H      0.756312    -0.430721    -1.219209
H      0.617057    -1.425415     0.223057
H      1.433570     1.246919     0.238795
9
Iteration 2, Energy=-154.0922594988, |grad|=0.007183
C     -0.918537     0.070910     0.049219
C      0.511544    -0.408146    -0.149548
O      1.449357     0.361762     0.554956
H     -1.102910     1.007146    -0.486927
H     -1.633760    -0.668245    -0.322453
H     -1.109287     0.248258     1.110710
H      0.756871    -0.435474    -1.217877
H      0.614250    -1.427039     0.226184
H      1.432472     1.250828     0.235736
9
Iteration 3, Energy=-154.0922843093, |grad|=0.009941
C     -0.918420     0.070867     0.050107
C      0.511334    -0.408869    -0.148564
O      1.449781     0.362241     0.552617
H     -1.099780     1.008457    -0.481447
H     -1.633775    -0.665557    -0.328472
H     -1.110550     0.244063     1.111288
H      0.756734    -0.439126    -1.216965
H      0.613734    -1.426605     0.229126
H      1.430943     1.254528     0.232311
9
Iteration 4, Energy=-154.0923184009, |grad|=0.010952
C     -0.918005     0.070831     0.050565
C      0.510838    -0.409409    -0.147964
O      1.449927     0.363773     0.550176
H     -1.096866     1.010653    -0.476502
H     -1.633119    -0.662413    -0.333476
H     -1.112135     0.239083     1.111605
H      0.756248    -0.442765    -1.216093
H      0.613967    -1.425986     0.232469
H      1.429144     1.256233     0.229220
9
Iteration 0, Energy=-154.0318753302, |grad|=0.434691
C     -0.862704     0.072146     0.022565
C      0.546444    -0.294839    -0.221309
O      1.349901     0.296728     0.711809
H     -1.351197     0.813284    -0.815033
H     -1.675297    -0.925560     0.120097
H     -1.088964     0.651649     1.072905
H      0.739323    -0.121177    -1.220942
H      0.671644    -1.435171    -0.042807
H      1.873030     0.988058     0.481535
9
Iteration -1, Energy=-154.0923184009, |grad|=0.010952
C     -0.918005     0.070831     0.050565
C      0.510838    -0.409409    -0.147964
O      1.449927     0.363773     0.550176
H     -1.096866     1.010653    -0.476502
H     -1.633119    -0.662413    -0.333476
H     -1.112135     0.239083     1.111605
H      0.756248    -0.442765    -1.216093
H      0.613967    -1.425986     0.232469
H      1.429144     1.256233     0.229220
9
Iteration 0, Energy=-154.0923372564, |grad|=0.006218
C     -0.917660     0.070938     0.050276
C      0.510809    -0.409729    -0.148141
O      1.449828     0.365252     0.549865
H     -1.096863     1.011556    -0.476620
H     -1.632838    -0.662132    -0.333224
H     -1.112494     0.238272     1.111666
H      0.755937    -0.442962    -1.216136
H      0.614416    -1.425686     0.232887
H      1.428866     1.254491     0.229427
9
Iteration 1, Energy=-154.0923491176, |grad|=0.006308
C     -0.917286     0.071279     0.049958
C      0.510952    -0.409788    -0.148250
O      1.449563     0.365372     0.549916
H     -1.096796     1.012674    -0.476678
H     -1.632484    -0.661766    -0.332944
H     -1.112963     0.237099     1.111643
H      0.755524    -0.443282    -1.216245
H      0.615097    -1.425321     0.233546
H      1.428393     1.253733     0.229055
9
Iteration 2, Energy=-154.0923857281, |grad|=0.005561
C     -0.915977     0.073972     0.048798
C      0.511432    -0.410218    -0.148301
O      1.448503     0.364895     0.550442
H     -1.096021     1.017713    -0.476144
H     -1.630755    -0.659850    -0.332191
H     -1.115233     0.230779     1.110986
H      0.753621    -0.445166    -1.217087
H      0.618572    -1.423494     0.237082
H      1.425858     1.251370     0.226416
9
Iteration 3, Energy=-154.0923991499, |grad|=0.009795
C     -0.916029     0.073234     0.048359
C      0.510783    -0.409058    -0.148292
O      1.448808     0.365226     0.549719
H     -1.094024     1.021415    -0.473347
H     -1.629401    -0.656918    -0.334541
H     -1.117008     0.225868     1.111010
H      0.752674    -0.447740    -1.216866
H      0.620331    -1.423432     0.240703
H      1.423867     1.251407     0.223256
9
Iteration 4, Energy=-154.0924203520, |grad|=0.006975
C     -0.915824     0.074289     0.048427
C      0.510881    -0.409773    -0.147650
O      1.448768     0.365523     0.548943
H     -1.092610     1.023157    -0.471028
H     -1.629118    -0.655593    -0.336710
H     -1.118137     0.222626     1.110922
H      0.752128    -0.449392    -1.216774
H      0.621216    -1.422669     0.242710
H      1.422696     1.251830     0.221159
9
Iteration 0, Energy=-154.0218195812, |grad|=0.426551
C     -0.866062    -0.049651     0.140623
C      0.567257    -0.408387    -0.092927
O      1.267842     0.416185     0.793253
H     -1.401325     0.818341    -0.771651
H     -1.684405    -0.763933     0.092685
H     -1.113408     0.615769     1.022060
H      0.690479    -0.083443    -1.146039
H      0.527772    -1.429476     0.023398
H      1.801744     1.084737     0.295561
9
Iteration -1, Energy=-154.0924203520, |grad|=0.006975
C     -0.915824     0.074289     0.048427
C      0.510881    -0.409773    -0.147650
O      1.448768     0.365523     0.548943
H     -1.092610     1.023157    -0.471028
H     -1.629118    -0.655593    -0.336710
H     -1.118137     0.222626     1.110922
H      0.752128    -0.449392    -1.216774
H      0.621216    -1.422669     0.242710
H      1.422696     1.251830     0.221159
9
Iteration 0, Energy=-154.0924286684, |grad|=0.007402
C     -0.915478     0.075748     0.049098
C      0.511577    -0.411643    -0.146876
O      1.448600     0.366373     0.548007
H     -1.092092     1.022315    -0.469695
H     -1.630087    -0.656095    -0.338524
H     -1.118227     0.222477     1.111078
H      0.752280    -0.449709    -1.216500
H      0.620539    -1.421920     0.242472
H      1.422888     1.252454     0.220941
9
Iteration 1, Energy=-154.0924365736, |grad|=0.004137
C     -0.915566     0.074939     0.049097
C      0.511464    -0.411061    -0.147046
O      1.448735     0.366314     0.547914
H     -1.091903     1.022504    -0.469438
H     -1.630011    -0.655754    -0.338905
H     -1.118300     0.222454     1.111289
H      0.752307    -0.449931    -1.216321
H      0.620417    -1.422278     0.242710
H      1.422857     1.252814     0.220699
9
Iteration 2, Energy=-154.0924479198, |grad|=0.003472
C     -0.915716     0.073513     0.049394
C      0.511396    -0.410579    -0.147020
O      1.449094     0.366970     0.547099
H     -1.091058     1.022621    -0.467947
H     -1.630215    -0.654972    -0.340914
H     -1.118577     0.222177     1.111921
H      0.752464    -0.450764    -1.215776
H      0.619768    -1.422813     0.243285
H      1.422844     1.253847     0.219958
9
Iteration 3, Energy=-154.0924610085, |grad|=0.005009
C     -0.915957     0.071973     0.050076
C      0.511375    -0.410568    -0.146569
O      1.449673     0.368388     0.545502
H     -1.089370     1.022682    -0.464870
H     -1.630696    -0.653661    -0.344841
H     -1.119171     0.221212     1.112857
H      0.752719    -0.452407    -1.214960
H      0.618683    -1.423296     0.244354
H      1.422743     1.255677     0.218452
9
Iteration 4, Energy=-154.0924817739, |grad|=0.006166
C     -0.916163     0.070743     0.050973
C      0.511186    -0.410929    -0.145797
O      1.450364     0.371077     0.543021
H     -1.086379     1.023926    -0.459630
H     -1.630860    -0.650976    -0.350902
H     -1.120733     0.217691     1.113884
H      0.752658    -0.455626    -1.213952
H      0.617975    -1.423449     0.247004
H      1.421953     1.257543     0.215398
9
Iteration 0, Energy=-154.0255212055, |grad|=0.637270
C     -0.863405     0.028779    -0.026691
C      0.403047    -0.337097    -0.263694
O      1.198718     0.257375     0.709884
H     -1.364514     0.701720    -0.816936
H     -1.603419    -0.838374    -0.075935
H     -0.992035     0.662704     1.017504
H      0.715215    -0.182766    -1.321060
H      0.645256    -1.393719    -0.094175
H      1.904806     0.957185     0.474748
9
Iteration -1, Energy=-154.0924817739, |grad|=0.006166
C     -0.916163     0.070743     0.050973
C      0.511186    -0.410929    -0.145797
O      1.450364     0.371077     0.543021
H     -1.086379     1.023926    -0.459630
H     -1.630860    -0.650976    -0.350902
H     -1.120733     0.217691     1.113884
H      0.752658    -0.455626    -1.213952
H      0.617975    -1.423449     0.247004
H      1.421953     1.257543     0.215398
9
Iteration 0, Energy=-154.0924902062, |grad|=0.004286
C     -0.915892     0.072310     0.050972
C      0.511536    -0.412037    -0.145232
O      1.450006     0.370775     0.543019
H     -1.086239     1.024178    -0.459283
H     -1.630906    -0.651078    -0.351034
H     -1.121023     0.216682     1.113612
H      0.752441    -0.455841    -1.214200
H      0.618393    -1.422571     0.247220
H      1.421685     1.257582     0.214925
9
Iteration 1, Energy=-154.0924954533, |grad|=0.003832
C     -0.915731     0.072593     0.050870
C      0.511549    -0.412028    -0.145270
O      1.449872     0.370783     0.543031
H     -1.086091     1.024838    -0.459115
H     -1.630682    -0.650788    -0.351047
H     -1.121335     0.215811     1.113515
H      0.752210    -0.456140    -1.214227
H      0.618814    -1.422360     0.247709
H      1.421394     1.257291     0.214533
9
Iteration 2, Energy=-154.0925163297, |grad|=0.010264
C     -0.915333     0.074137     0.049188
C      0.511382    -0.411926    -0.144037
O      1.449270     0.370363     0.542666
H     -1.083384     1.031614    -0.455086
H     -1.628124    -0.646402    -0.353447
H     -1.124843     0.206088     1.113266
H      0.750163    -0.460228    -1.214857
H      0.622643    -1.420323     0.253510
H      1.418225     1.256678     0.208798
9
Iteration 3, Energy=-154.0925310410, |grad|=0.007438
C     -0.914452     0.075460     0.049909
C      0.511321    -0.412435    -0.144606
O      1.449141     0.373114     0.541453
H     -1.081802     1.034673    -0.452515
H     -1.627721    -0.644761    -0.355965
H     -1.126617     0.201305     1.112785
H      0.749161    -0.462430    -1.214205
H      0.624061    -1.419573     0.256496
H      1.416909     1.254647     0.206648
9
Iteration 4, Energy=-154.0925421702, |grad|=0.004647
C     -0.914594     0.074926     0.050189
C      0.511421    -0.412367    -0.144464
O      1.449322     0.372941     0.541176
H     -1.081591     1.034057    -0.451950
H     -1.628109    -0.644796    -0.356882
H     -1.126474     0.201894     1.113058
H      0.749420    -0.462480    -1.213927
H      0.623444    -1.419856     0.256313
H      1.417162     1.255683     0.206489
9
Iteration 0, Energy=-154.0431967894, |grad|=0.577074
C     -0.947178    -0.023606     0.090361
C      0.559699    -0.416858    -0.145437
O      1.244920     0.388368     0.778398
H     -1.350500     0.687443    -0.689967
H     -1.637994    -0.867170     0.059309
H     -1.019869     0.687596     0.920326
H      0.856032    -0.088469    -1.145606
H      0.591249    -1.330979     0.007431
H      1.846726     0.985070     0.310787
9
Iteration -1, Energy=-154.0925421702, |grad|=0.004647
C     -0.914594     0.074926     0.050189
C      0.511421    -0.412367    -0.144464
O      1.449322     0.372941     0.541176
H     -1.081591     1.034057    -0.451950
H     -1.628109    -0.644796    -0.356882
H     -1.126474     0.201894     1.113058
H      0.749420    -0.462480    -1.213927
H      0.623444    -1.419856     0.256313
H      1.417162     1.255683     0.206489
9
Iteration 0, Energy=-154.0925492998, |grad|=0.007942
C     -0.914646     0.074115     0.050292
C      0.511889    -0.412601    -0.143650
O      1.449322     0.372229     0.540426
H     -1.080963     1.033303    -0.450387
H     -1.628700    -0.644481    -0.358965
H     -1.126582     0.202248     1.113847
H      0.749762    -0.462916    -1.213438
H      0.622457    -1.419900     0.256273
H      1.417461     1.258004     0.205603
9
Iteration 1, Energy=-154.0925582974, |grad|=0.004254
C     -0.914694     0.073654     0.050582
C      0.511827    -0.412733    -0.143647
O      1.449526     0.373226     0.539850
H     -1.080641     1.033079    -0.449678
H     -1.628917    -0.644274    -0.359955
H     -1.126647     0.202311     1.114059
H      0.749903    -0.463173    -1.213130
H      0.622026    -1.420074     0.256361
H      1.417618     1.257984     0.205556
9
Iteration 2, Energy=-154.0925673652, |grad|=0.002574
C     -0.914916     0.072339     0.051402
C      0.511726    -0.412866    -0.143505
O      1.450073     0.375038     0.538453
H     -1.079597     1.032467    -0.447432
H     -1.629506    -0.643550    -0.362977
H     -1.126903     0.202306     1.114683
H      0.750308    -0.464050    -1.212286
H      0.620837    -1.420600     0.256771
H      1.417978     1.258917     0.204889
9
Iteration 3, Energy=-154.0925711958, |grad|=0.002758
C     -0.915120     0.072005     0.051726
C      0.511578    -0.412878    -0.143342
O      1.450346     0.375657     0.537980
H     -1.078941     1.032525    -0.446166
H     -1.629556    -0.642947    -0.364436
H     -1.127231     0.201646     1.114860
H      0.750396    -0.464729    -1.212076
H      0.620582    -1.420750     0.257319
H      1.417946     1.259469     0.204134
9
Iteration 4, Energy=-154.0925926437, |grad|=0.004959
C     -0.915368     0.070725     0.052944
C      0.511577    -0.413631    -0.141829
O      1.450958     0.379333     0.534610
H     -1.074753     1.034620    -0.438106
H     -1.629649    -0.638855    -0.373462
H     -1.130171     0.195655     1.116357
H      0.750285    -0.469451    -1.210661
H      0.619834    -1.420496     0.261454
H      1.417288     1.262100     0.198694
9
Iteration 0, Energy=-154.0416852335, |grad|=0.563434
C     -0.897786     0.049613     0.046296
C      0.393362    -0.248764    -0.224762
O      1.351315     0.329164     0.752563
H     -1.265341     0.708286    -0.801932
H     -1.597173    -0.795825     0.080927
H     -1.125688     0.579725     0.977264
H      0.718028    -0.129156    -1.197021
H      0.521857    -1.375022     0.046335
H      1.789763     1.102567     0.293416
9
Iteration -1, Energy=-154.0925926437, |grad|=0.004959
C     -0.915368     0.070725     0.052944
C      0.511577    -0.413631    -0.141829
O      1.450958     0.379333     0.534610
H     -1.074753     1.034620    -0.438106
H     -1.629649    -0.638855    -0.373462
H     -1.130171     0.195655     1.116357
H      0.750285    -0.469451    -1.210661
H      0.619834    -1.420496     0.261454
H      1.417288     1.262100     0.198694
9
Iteration 0, Energy=-154.0925991055, |grad|=0.005776
C     -0.915068     0.071099     0.052704
C      0.511785    -0.413275    -0.141995
O      1.450567     0.377953     0.535093
H     -1.074727     1.035656    -0.438191
H     -1.629300    -0.638570    -0.373069
H     -1.130581     0.194516     1.116138
H      0.749887    -0.469708    -1.210618
H      0.620574    -1.420158     0.262085
H      1.416863     1.262487     0.197854
9
Iteration 1, Energy=-154.0926053119, |grad|=0.004117
C     -0.914871     0.071499     0.052509
C      0.511791    -0.413360    -0.142019
O      1.450379     0.378068     0.535141
H     -1.074685     1.036391    -0.438181
H     -1.629036    -0.638351    -0.372830
H     -1.130891     0.193616     1.115961
H      0.749614    -0.469906    -1.210668
H      0.621096    -1.419831     0.262516
H      1.416602     1.261873     0.197570
9
Iteration 2, Energy=-154.0926161313, |grad|=0.001961
C     -0.914410     0.073150     0.051829
C      0.511686    -0.413586    -0.141777
O      1.449861     0.378292     0.535374
H     -1.074278     1.039118    -0.437637
H     -1.628009    -0.637312    -0.372377
H     -1.132137     0.189865     1.115207
H      0.748638    -0.470882    -1.211064
H      0.623101    -1.418676     0.264423
H      1.415549     1.260030     0.196021
9
Iteration 3, Energy=-154.0926193783, |grad|=0.002442
C     -0.914375     0.073104     0.051903
C      0.511689    -0.413551    -0.141910
O      1.449917     0.378670     0.535193
H     -1.073853     1.039974    -0.436825
H     -1.627846    -0.636730    -0.373166
H     -1.132653     0.188624     1.115180
H      0.748394    -0.471441    -1.210821
H      0.623421    -1.418541     0.265287
H      1.415306     1.259890     0.195158
9
Iteration 4, Energy=-154.0926355735, |grad|=0.005482
C     -0.914227     0.073055     0.052160
C      0.511817    -0.413876    -0.141480
O      1.450180     0.380758     0.533663
H     -1.071195     1.044084    -0.431428
H     -1.627250    -0.633434    -0.378546
H     -1.135563     0.181794     1.115393
H      0.747313    -0.474725    -1.209724
H      0.624766    -1.417583     0.269941
H      1.414160     1.259926     0.190021
9
Iteration 0, Energy=-154.0282827205, |grad|=0.490152
C     -0.938102     0.031292     0.097127
C      0.408026    -0.410147    -0.093000
O      1.222282     0.254569     0.808683
H     -1.413654     0.708450    -0.681860
H     -1.586850    -0.867755     0.048666
H     -1.075426     0.563856     0.975680
H      0.861802    -0.159942    -1.157043
H      0.494335    -1.463728    -0.009866
H      1.901667     1.064652     0.328107
9
Iteration -1, Energy=-154.0926355735, |grad|=0.005482
C     -0.914227     0.073055     0.052160
C      0.511817    -0.413876    -0.141480
O      1.450180     0.380758     0.533663
H     -1.071195     1.044084    -0.431428
H     -1.627250    -0.633434    -0.378546
H     -1.135563     0.181794     1.115393
H      0.747313    -0.474725    -1.209724
H      0.624766    -1.417583     0.269941
H      1.414160     1.259926     0.190021
9
Iteration 0, Energy=-154.0926397878, |grad|=0.004328
C     -0.914210     0.073532     0.051945
C      0.511927    -0.414193    -0.140131
O      1.449915     0.380062     0.533310
H     -1.070974     1.043375    -0.430722
H     -1.627448    -0.633387    -0.379198
H     -1.135593     0.181793     1.115594
H      0.747580    -0.474873    -1.210135
H      0.624491    -1.417318     0.269733
H      1.414312     1.261008     0.189603
9
Iteration 1, Energy=-154.0926422872, |grad|=0.002322
C     -0.914245     0.073287     0.052118
C      0.511844    -0.414128    -0.140376
O      1.450001     0.380539     0.533154
H     -1.070894     1.043371    -0.430575
H     -1.627441    -0.633274    -0.379422
H     -1.135629     0.181796     1.115600
H      0.747602    -0.474956    -1.209947
H      0.624391    -1.417444     0.269800
H      1.414372     1.260809     0.189647
9
Iteration 2, Energy=-154.0926450236, |grad|=0.002079
C     -0.914328     0.072843     0.052426
C      0.511735    -0.414057    -0.140502
O      1.450105     0.381124     0.532770
H     -1.070615     1.043161    -0.429965
H     -1.627488    -0.632970    -0.380201
H     -1.135752     0.181767     1.115722
H      0.747729    -0.475225    -1.209626
H      0.624070    -1.417631     0.269915
H      1.414544     1.260988     0.189461
9
Iteration 3, Energy=-154.0926486588, |grad|=0.002654
C     -0.914471     0.072084     0.052914
C      0.511617    -0.414065    -0.140443
O      1.450257     0.381951     0.532033
H     -1.069990     1.042753    -0.428558
H     -1.627619    -0.632330    -0.381936
H     -1.136080     0.181562     1.116086
H      0.747988    -0.475848    -1.209083
H      0.623423    -1.417853     0.270166
H      1.414876     1.261747     0.188822
9
Iteration 4, Energy=-154.0926530725, |grad|=0.002678
C     -0.914548     0.071507     0.053319
C      0.511687    -0.414248    -0.140053
O      1.450380     0.382917     0.531218
H     -1.069060     1.042906    -0.426542
H     -1.627773    -0.631439    -0.384337
H     -1.136830     0.180484     1.116661
H      0.748113    -0.476916    -1.208615
H      0.622913    -1.417856     0.270872
H      1.415120     1.262644     0.187478
9
Iteration 0, Energy=-154.0414583038, |grad|=0.533773
C     -0.901734     0.107688    -0.022964
C      0.440606    -0.314117    -0.089092
O      1.288104     0.339176     0.824396
H     -1.286462     0.648211    -0.721782
H     -1.552940    -0.775425     0.116592
H     -1.118811     0.640140     1.038451
H      0.835711    -0.089853    -1.142831
H      0.657517    -1.340784    -0.067639
H      1.835725     1.071760     0.479211
9
Iteration -1, Energy=-154.0926530725, |grad|=0.002678
C     -0.914548     0.071507     0.053319
C      0.511687    -0.414248    -0.140053
O      1.450380     0.382917     0.531218
H     -1.069060     1.042906    -0.426542
H     -1.627773    -0.631439    -0.384337
H     -1.136830     0.180484     1.116661
H      0.748113    -0.476916    -1.208615
H      0.622913    -1.417856     0.270872
H      1.415120     1.262644     0.187478
9
Iteration 0, Energy=-154.0926538242, |grad|=0.003925
C     -0.914536     0.071901     0.053084
C      0.511833    -0.414268    -0.139615
O      1.450236     0.382107     0.531428
H     -1.068946     1.043229    -0.426295
H     -1.627698    -0.631320    -0.384426
H     -1.137040     0.179877     1.116649
H      0.748001    -0.477100    -1.208830
H      0.623186    -1.417607     0.271147
H      1.414962     1.263182     0.186858
9
Iteration 1, Energy=-154.0926553886, |grad|=0.001936
C     -0.914525     0.071874     0.053125
C      0.511785    -0.414294    -0.139718
O      1.450270     0.382484     0.531344
H     -1.068926     1.043333    -0.426266
H     -1.627673    -0.631278    -0.384458
H     -1.137081     0.179775     1.116620
H      0.747972    -0.477137    -1.208781
H      0.623217    -1.417615     0.271218
H      1.414961     1.262857     0.186916
9
Iteration 2, Energy=-154.0926570264, |grad|=0.001487
C     -0.914493     0.071999     0.053102
C      0.511763    -0.414320    -0.139738
O      1.450261     0.382794     0.531292
H     -1.068803     1.043769    -0.426038
H     -1.627569    -0.631092    -0.384607
H     -1.137305     0.179185     1.116547
H      0.747839    -0.477337    -1.208758
H      0.623443    -1.417507     0.271559
H      1.414864     1.262509     0.186642
9
Iteration 3, Energy=-154.0926601544, |grad|=0.002713
C     -0.914397     0.072406     0.052982
C      0.511758    -0.414359    -0.139664
O      1.450178     0.383243     0.531219
H     -1.068396     1.045067    -0.425245
H     -1.627256    -0.630490    -0.385145
H     -1.138017     0.177337     1.116356
H      0.747442    -0.477980    -1.208709
H      0.624133    -1.417134     0.272627
H      1.414554     1.261910     0.185578
9
Iteration 4, Energy=-154.0926638874, |grad|=0.003228
C     -0.914258     0.072843     0.052855
C      0.511770    -0.414421    -0.139440
O      1.450027     0.383661     0.531003
H     -1.067699     1.046767    -0.423777
H     -1.626845    -0.629482    -0.386289
H     -1.139097     0.174676     1.116168
H      0.746940    -0.478989    -1.208513
H      0.624981    -1.416581     0.274197
H      1.414181     1.261526     0.183796
9
Iteration 0, Energy=-154.0326518446, |grad|=0.448269
C     -0.935680     0.021890     0.141162
C      0.395049    -0.421010    -0.171403
O      1.346045     0.396919     0.648446
H     -1.258443     0.706676    -0.776846
H     -1.532049    -0.782357    -0.008370
H     -1.148611     0.630989     0.927363
H      0.706356    -0.112579    -1.284595
H      0.507716    -1.502796     0.050340
H      1.882419     1.066323     0.312922
9
Iteration -1, Energy=-154.0926638874, |grad|=0.003228
C     -0.914258     0.072843     0.052855
C      0.511770    -0.414421    -0.139440
O      1.450027     0.383661     0.531003
H     -1.067699     1.046767    -0.423777
H     -1.626845    -0.629482    -0.386289
H     -1.139097     0.174676     1.116168
H      0.746940    -0.478989    -1.208513
H      0.624981    -1.416581     0.274197
H      1.414181     1.261526     0.183796
9
Iteration 0, Energy=-154.0926654850, |grad|=0.002009
C     -0.914275     0.072772     0.052860
C      0.511829    -0.414381    -0.139259
O      1.449979     0.383187     0.530995
H     -1.067605     1.046617    -0.423509
H     -1.626885    -0.629382    -0.386584
H     -1.139141     0.174665     1.116249
H      0.746999    -0.479062    -1.208470
H      0.624877    -1.416563     0.274226
H      1.414222     1.262147     0.183493
9
Iteration 1, Energy=-154.0926688807, |grad|=0.001576
C     -0.914331     0.072292     0.053118
C      0.511766    -0.414576    -0.138921
O      1.450031     0.383788     0.530290
H     -1.067172     1.046138    -0.422319
H     -1.627038    -0.628887    -0.387995
H     -1.139377     0.174543     1.116540
H      0.747234    -0.479421    -1.208107
H      0.624355    -1.416584     0.274407
H      1.414531     1.262707     0.182988
9
Iteration 2, Energy=-154.0926709669, |grad|=0.003936
C     -0.914588     0.070745     0.054152
C      0.511614    -0.414221    -0.139121
O      1.450420     0.385174     0.529102
H     -1.065992     1.045933    -0.419508
H     -1.627271    -0.627508    -0.391499
H     -1.140213     0.173591     1.117106
H      0.747542    -0.480614    -1.206979
H      0.623425    -1.417086     0.275510
H      1.415062     1.263986     0.181236
9
Iteration 3, Energy=-154.0926741341, |grad|=0.001881
C     -0.914614     0.071060     0.053945
C      0.511712    -0.414670    -0.138498
O      1.450381     0.385467     0.528890
H     -1.065757     1.046094    -0.418910
H     -1.627279    -0.627298    -0.392055
H     -1.140506     0.172984     1.117302
H      0.747523    -0.480904    -1.207163
H      0.623458    -1.416758     0.275720
H      1.415082     1.264026     0.180769
9
Iteration 4, Energy=-154.0926768453, |grad|=0.002301
C     -0.914642     0.071317     0.053862
C      0.511822    -0.414902    -0.138064
O      1.450366     0.385831     0.528726
H     -1.065361     1.046705    -0.418041
H     -1.627215    -0.626877    -0.392905
H     -1.141047     0.171820     1.117460
H      0.747389    -0.481457    -1.207229
H      0.623655    -1.416480     0.276321
H      1.415034     1.264045     0.179870
9
Iteration 0, Energy=-154.0186505778, |grad|=0.930404
C     -1.009484     0.061642     0.029856
C      0.400650    -0.244571    -0.101619
O      1.300818     0.415145     0.764609
H     -1.305524     0.748613    -0.653193
H     -1.621083    -0.936602     0.109593
H     -1.161667     0.547386     0.919655
H      0.707122    -0.143366    -1.211480
H      0.656627    -1.363236     0.002738
H      1.771566     0.952593     0.426781
9
Iteration -1, Energy=-154.0926768453, |grad|=0.002301
C     -0.914642     0.071317     0.053862
C      0.511822    -0.414902    -0.138064
O      1.450366     0.385831     0.528726
H     -1.065361     1.046705    -0.418041
H     -1.627215    -0.626877    -0.392905
H     -1.141047     0.171820     1.117460
H      0.747389    -0.481457    -1.207229
H      0.623655    -1.416480     0.276321
H      1.415034     1.264045     0.179870
9
Iteration 0, Energy=-154.0926782040, |grad|=0.001972
C     -0.914573     0.071247     0.053991
C      0.511784    -0.414520    -0.138443
O      1.450309     0.385637     0.528867
H     -1.065315     1.047163    -0.418033
H     -1.627077    -0.626730    -0.392847
H     -1.141203     0.171384     1.117266
H      0.747241    -0.481595    -1.207041
H      0.623913    -1.416563     0.276655
H      1.414921     1.263977     0.179585
9
Iteration 1, Energy=-154.0926793287, |grad|=0.001763
C     -0.914517     0.071404     0.053924
C      0.511763    -0.414524    -0.138439
O      1.450232     0.385683     0.528878
H     -1.065261     1.047507    -0.417928
H     -1.626955    -0.626602    -0.392825
H     -1.141372     0.170918     1.117161
H      0.747124    -0.481719    -1.207020
H      0.624142    -1.416432     0.276883
H      1.414843     1.263764     0.179366
9
Iteration 2, Energy=-154.0926812260, |grad|=0.004404
C     -0.914195     0.072800     0.053232
C      0.511775    -0.414729    -0.137740
O      1.449625     0.385196     0.529089
H     -1.064652     1.050032    -0.416573
H     -1.626103    -0.625483    -0.393195
H     -1.142823     0.167057     1.116560
H      0.746287    -0.482847    -1.207093
H      0.625829    -1.415218     0.278757
H      1.414256     1.263191     0.176962
9
Iteration 3, Energy=-154.0926842348, |grad|=0.001978
C     -0.914233     0.072595     0.053438
C      0.511692    -0.414755    -0.137901
O      1.449774     0.386175     0.528786
H     -1.064476     1.050203    -0.416160
H     -1.626126    -0.625272    -0.393721
H     -1.143005     0.166749     1.116589
H      0.746274    -0.483046    -1.206935
H      0.625761    -1.415307     0.279039
H      1.414338     1.262658     0.176865
9
Iteration 4, Energy=-154.0926852236, |grad|=0.001753
C     -0.914296     0.072403     0.053541
C      0.511719    -0.414755    -0.137875
O      1.449860     0.386310     0.528678
H     -1.064392     1.050040    -0.415929
H     -1.626224    -0.625216    -0.394086
H     -1.143016     0.166855     1.116714
H      0.746352    -0.483094    -1.206876
H      0.625569    -1.415397     0.279052
H      1.414430     1.262854     0.176781
9
Iteration 0, Energy=-154.0497496002, |grad|=0.436641
C     -0.944156     0.004506     0.138194
C      0.489235    -0.242838    -0.200134
O      1.317046     0.404643     0.742962
H     -1.355730     0.679583    -0.804316
H     -1.550634    -0.814306     0.027345
H     -1.157334     0.543109     1.002062
H      0.714612    -0.133327    -1.314751
H      0.612476    -1.330263    -0.026516
H      1.818908     1.001855     0.357856
9
Iteration -1, Energy=-154.0926852236, |grad|=0.001753
C     -0.914296     0.072403     0.053541
C      0.511719    -0.414755    -0.137875
O      1.449860     0.386310     0.528678
H     -1.064392     1.050040    -0.415929
H     -1.626224    -0.625216    -0.394086
H     -1.143016     0.166855     1.116714
H      0.746352    -0.483094    -1.206876
H      0.625569    -1.415397     0.279052
H      1.414430     1.262854     0.176781
9
Iteration 0, Energy=-154.0926855276, |grad|=0.003694
C     -0.914364     0.072133     0.053632
C      0.511839    -0.414681    -0.137685
O      1.449873     0.385866     0.528601
H     -1.064196     1.049834    -0.415380
H     -1.626343    -0.625018    -0.394793
H     -1.143136     0.166826     1.116940
H      0.746456    -0.483255    -1.206742
H      0.625316    -1.415446     0.279174
H      1.414555     1.263742     0.176255
9
Iteration 0, Energy=-154.0491059057, |grad|=0.453508
C     -0.968028     0.076089     0.001724
C      0.390469    -0.304770    -0.260418
O      1.272288     0.374772     0.802946
H     -1.451964     0.731518    -0.714719
H     -1.577313    -0.854899     0.048003
H     -1.061907     0.690582     0.951074
H      0.714400    -0.111877    -1.155917
H      0.624345    -1.357160    -0.071934
H      1.786572     1.097498     0.317850
9
Iteration -1, Energy=-154.0926855276, |grad|=0.003694
C     -0.914364     0.072133     0.053632
C      0.511839    -0.414681    -0.137685
O      1.449873     0.385866     0.528601
H     -1.064196     1.049834    -0.415380
H     -1.626343    -0.625018    -0.394793
H     -1.143136     0.166826     1.116940
H      0.746456    -0.483255    -1.206742
H      0.625316    -1.415446     0.279174
H      1.414555     1.263742     0.176255
9
Iteration 0, Energy=-154.0926871226, |grad|=0.001096
C     -0.914367     0.072088     0.053696
C      0.511764    -0.414800    -0.137722
O      1.449933     0.386506     0.528396
H     -1.064156     1.049837    -0.415273
H     -1.626353    -0.624970    -0.394935
H     -1.143171     0.166780     1.116948
H      0.746470    -0.483293    -1.206699
H      0.625267    -1.415454     0.279203
H      1.414611     1.263306     0.176386
9
Iteration 1, Energy=-154.0926882981, |grad|=0.001039
C     -0.914426     0.071872     0.053866
C      0.511740    -0.414761    -0.137680
O      1.449998     0.386762     0.528192
H     -1.063939     1.049827    -0.414723
H     -1.626394    -0.624716    -0.395600
H     -1.143356     0.166527     1.117047
H      0.746523    -0.483517    -1.206538
H      0.625127    -1.415511     0.279436
H      1.414726     1.263517     0.176001
9
Iteration 2, Energy=-154.0926922590, |grad|=0.003321
C     -0.914858     0.070677     0.054579
C      0.511790    -0.415362    -0.136282
O      1.450267     0.388972     0.526223
H     -1.061956     1.049945    -0.409500
H     -1.626638    -0.622351    -0.401507
H     -1.145294     0.163624     1.118218
H      0.746872    -0.485621    -1.205442
H      0.624096    -1.415209     0.281476
H      1.415721     1.265326     0.172234
9
Iteration 3, Energy=-154.0926962108, |grad|=0.002924
C     -0.914810     0.070160     0.055192
C      0.511741    -0.414834    -0.136570
O      1.450243     0.389757     0.525739
H     -1.061100     1.051142    -0.407484
H     -1.626460    -0.621165    -0.403668
H     -1.146448     0.161416     1.118219
H      0.746648    -0.486774    -1.204650
H      0.624305    -1.415237     0.283020
H      1.415882     1.265536     0.170201
9
Iteration 4, Energy=-154.0926996032, |grad|=0.003074
C     -0.914756     0.070283     0.055251
C      0.511730    -0.414791    -0.136393
O      1.450110     0.390159     0.525517
H     -1.060590     1.052118    -0.406248
H     -1.626212    -0.620409    -0.404744
H     -1.147275     0.159645     1.118151
H      0.746403    -0.487525    -1.204382
H      0.624702    -1.414931     0.284025
H      1.415886     1.265452     0.168823
9
Iteration 0, Energy=-154.0273560083, |grad|=0.593428
C     -1.020535    -0.039825     0.041574
C      0.480219    -0.236495    -0.108349
O      1.211195     0.345633     0.820123
H     -1.340851     0.654670    -0.821727
H     -1.609211    -0.832987     0.116114
H     -1.169921     0.606986     1.011822
H      0.810652    -0.171159    -1.178702
H      0.524583    -1.481957     0.031795
H      1.800381     1.146794     0.384930
9
Iteration -1, Energy=-154.0926996032, |grad|=0.003074
C     -0.914756     0.070283     0.055251
C      0.511730    -0.414791    -0.136393
O      1.450110     0.390159     0.525517
H     -1.060590     1.052118    -0.406248
H     -1.626212    -0.620409    -0.404744
H     -1.147275     0.159645     1.118151
H      0.746403    -0.487525    -1.204382
H      0.624702    -1.414931     0.284025
H      1.415886     1.265452     0.168823
9
Iteration 0, Energy=-154.0927010349, |grad|=0.001724
C     -0.914770     0.070544     0.055038
C      0.511741    -0.415031    -0.136101
O      1.450061     0.390156     0.525522
H     -1.060589     1.052165    -0.406199
H     -1.626151    -0.620391    -0.404655
H     -1.147329     0.159457     1.118152
H      0.746373    -0.487539    -1.204536
H      0.624806    -1.414724     0.284018
H      1.415858     1.265364     0.168763
9
Iteration 1, Energy=-154.0927022787, |grad|=0.001498
C     -0.914759     0.070915     0.054797
C      0.511733    -0.415201    -0.135861
O      1.449975     0.390073     0.525622
H     -1.060583     1.052451    -0.406156
H     -1.626004    -0.620323    -0.404462
H     -1.147470     0.158991     1.118038
H      0.746256    -0.487607    -1.204698
H      0.625087    -1.414466     0.284158
H      1.415765     1.265166     0.168562
9
Iteration 2, Energy=-154.0927035692, |grad|=0.001553
C     -0.914691     0.071343     0.054580
C      0.511707    -0.415245    -0.135766
O      1.449848     0.390013     0.525791
H     -1.060565     1.053065    -0.406105
H     -1.625773    -0.620185    -0.404200
H     -1.147731     0.158187     1.117793
H      0.746031    -0.487750    -1.204805
H      0.625565    -1.414183     0.284504
H      1.415609     1.264755     0.168207
9
Iteration 3, Energy=-154.0927044074, |grad|=0.002038
C     -0.914546     0.071650     0.054456
C      0.511776    -0.415085    -0.135783
O      1.449643     0.389692     0.525995
H     -1.060457     1.053976    -0.405791
H     -1.625541    -0.619897    -0.404240
H     -1.148199     0.157009     1.117545
H      0.745728    -0.488031    -1.204727
H      0.626125    -1.413897     0.285152
H      1.415470     1.264583     0.167395
9
Iteration 4, Energy=-154.0927050711, |grad|=0.000934
C     -0.914490     0.071739     0.054474
C      0.511728    -0.415049    -0.135867
O      1.449608     0.390051     0.525943
H     -1.060369     1.054442    -0.405546
H     -1.625426    -0.619706    -0.404381
H     -1.148462     0.156378     1.117408
H      0.745589    -0.488203    -1.204638
H      0.626371    -1.413794     0.285522
H      1.415451     1.264141     0.167084
9
Iteration 0, Energy=-154.0590230372, |grad|=0.359302
C     -1.009204     0.040502     0.093662
C      0.499702    -0.323733    -0.161699
O      1.201605     0.352624     0.770538
H     -1.411342     0.680879    -0.682034
H     -1.533024    -0.920166     0.106998
H     -1.134188     0.534359     0.941639
H      0.712747    -0.138986    -1.165201
H      0.499914    -1.391614    -0.126117
H      1.760911     1.009218     0.468031
9
Iteration -1, Energy=-154.0927050711, |grad|=0.000934
C     -0.914490     0.071739     0.054474
C      0.511728    -0.415049    -0.135867
O      1.449608     0.390051     0.525943
H     -1.060369     1.054442    -0.405546
H     -1.625426    -0.619706    -0.404381
H     -1.148462     0.156378     1.117408
H      0.745589    -0.488203    -1.204638
H      0.626371    -1.413794     0.285522
H      1.415451     1.264141     0.167084
9
Iteration 0, Energy=-154.0927057464, |grad|=0.001744
C     -0.914683     0.071538     0.054555
C      0.511697    -0.415138    -0.135545
O      1.449720     0.390116     0.525745
H     -1.060152     1.054110    -0.404889
H     -1.625510    -0.619464    -0.405166
H     -1.148582     0.156322     1.117617
H      0.745753    -0.488357    -1.204585
H      0.626086    -1.413820     0.285623
H      1.415672     1.264694     0.166644
9
Iteration 1, Energy=-154.0927064748, |grad|=0.000927
C     -0.914769     0.071276     0.054740
C      0.511653    -0.415149    -0.135508
O      1.449815     0.390541     0.525488
H     -1.059978     1.053978    -0.404378
H     -1.625583    -0.619256    -0.405832
H     -1.148720     0.156217     1.117750
H      0.745847    -0.488506    -1.204415
H      0.625870    -1.413899     0.285776
H      1.415865     1.264798     0.166379
9
Iteration 2, Energy=-154.0927069606, |grad|=0.000878
C     -0.914784     0.070960     0.054961
C      0.511673    -0.415080    -0.135533
O      1.449841     0.390875     0.525232
H     -1.059768     1.054007    -0.403764
H     -1.625652    -0.618983    -0.406622
H     -1.148970     0.155929     1.117900
H      0.745896    -0.488730    -1.204140
H      0.625692    -1.413958     0.286047
H      1.416073     1.264980     0.165919
9
Iteration 3, Energy=-154.0927075501, |grad|=0.001235
C     -0.914783     0.070786     0.055073
C      0.511708    -0.415142    -0.135381
O      1.449810     0.391298     0.524940
H     -1.059510     1.054177    -0.402986
H     -1.625666    -0.618621    -0.407493
H     -1.149355     0.155342     1.118059
H      0.745900    -0.489043    -1.203905
H      0.625602    -1.413864     0.286415
H      1.416294     1.265069     0.165277
9
Iteration 4, Energy=-154.0927095350, |grad|=0.002099
C     -0.914806     0.070392     0.055425
C      0.511758    -0.415170    -0.134951
O      1.449680     0.392432     0.524208
H     -1.058637     1.055062    -0.400421
H     -1.625553    -0.617337    -0.410191
H     -1.150746     0.152980     1.118378
H      0.745800    -0.490183    -1.203177
H      0.625584    -1.413519     0.287847
H      1.416923     1.265344     0.162882
9
Iteration 0, Energy=-154.0447372376, |grad|=0.509272
C     -0.890799     0.120651     0.070440
C      0.487074    -0.257621    -0.280475
O      1.355010     0.254855     0.721330
H     -1.354505     0.739525    -0.818977
H     -1.584881    -0.868112    -0.042853
H     -1.053528     0.497923     1.047239
H      0.689333    -0.060438    -1.218616
H      0.634704    -1.360701    -0.080710
H      1.881633     1.007978     0.309517
9
Iteration -1, Energy=-154.0927095350, |grad|=0.002099
C     -0.914806     0.070392     0.055425
C      0.511758    -0.415170    -0.134951
O      1.449680     0.392432     0.524208
H     -1.058637     1.055062    -0.400421
H     -1.625553    -0.617337    -0.410191
H     -1.150746     0.152980     1.118378
H      0.745800    -0.490183    -1.203177
H      0.625584    -1.413519     0.287847
H      1.416923     1.265344     0.162882
9
Iteration 0, Energy=-154.0927100668, |grad|=0.002561
C     -0.914961     0.070749     0.055220
C      0.511685    -0.415151    -0.134665
O      1.449671     0.391838     0.524524
H     -1.058605     1.055182    -0.400355
H     -1.625377    -0.617252    -0.409990
H     -1.150815     0.152611     1.118209
H      0.745745    -0.490256    -1.203429
H      0.625841    -1.413379     0.287972
H      1.416816     1.265658     0.162514
9
Iteration 1, Energy=-154.0927107726, |grad|=0.001126
C     -0.914935     0.070755     0.055244
C      0.511656    -0.415167    -0.134736
O      1.449677     0.392088     0.524471
H     -1.058607     1.055270    -0.400364
H     -1.625361    -0.617243    -0.409971
H     -1.150843     0.152538     1.118172
H      0.745717    -0.490269    -1.203400
H      0.625879    -1.413375     0.288012
H      1.416816     1.265403     0.162572
9
Iteration 2, Energy=-154.0927112399, |grad|=0.000795
C     -0.914921     0.070883     0.055212
C      0.511611    -0.415156    -0.134767
O      1.449658     0.392203     0.524515
H     -1.058600     1.055501    -0.400353
H     -1.625273    -0.617194    -0.409875
H     -1.150933     0.152252     1.118054
H      0.745637    -0.490323    -1.203420
H      0.626049    -1.413311     0.288146
H      1.416772     1.265146     0.162488
9
Iteration 3, Energy=-154.0927117258, |grad|=0.000865
C     -0.914867     0.071119     0.055121
C      0.511587    -0.415123    -0.134783
O      1.449574     0.392215     0.524630
H     -1.058583     1.055957    -0.400301
H     -1.625121    -0.617098    -0.409731
H     -1.151129     0.151688     1.117870
H      0.745479    -0.490434    -1.203442
H      0.626368    -1.413160     0.288410
H      1.416693     1.264837     0.162226
9
Iteration 4, Energy=-154.0927121196, |grad|=0.000736
C     -0.914729     0.071258     0.055013
C      0.511688    -0.415159    -0.134708
O      1.449408     0.392204     0.524624
H     -1.058526     1.056436    -0.400055
H     -1.625042    -0.616951    -0.409864
H     -1.151427     0.151055     1.117830
H      0.745324    -0.490582    -1.203356
H      0.626605    -1.412932     0.288723
H      1.416699     1.264671     0.161793
9
Iteration 0, Energy=-154.0423367897, |grad|=0.489086
C     -1.041938     0.016312     0.107182
C      0.418201    -0.304442    -0.200942
O      1.206757     0.282584     0.729838
H     -1.414089     0.644592    -0.683412
H     -1.625428    -0.960805    -0.049302
H     -1.149908     0.560519     0.921512
H      0.735567    -0.092850    -1.181122
H      0.506689    -1.332933    -0.027080
H      1.843128     1.104366     0.459187
9
Iteration -1, Energy=-154.0927121196, |grad|=0.000736
C     -0.914729     0.071258     0.055013
C      0.511688    -0.415159    -0.134708
O      1.449408     0.392204     0.524624
H     -1.058526     1.056436    -0.400055
H     -1.625042    -0.616951    -0.409864
H     -1.151427     0.151055     1.117830
H      0.745324    -0.490582    -1.203356
H      0.626605    -1.412932     0.288723
H      1.416699     1.264671     0.161793
9
Iteration 0, Energy=-154.0927121516, |grad|=0.001386
C     -0.914841     0.071212     0.055075
C      0.511634    -0.415052    -0.134674
O      1.449468     0.392030     0.524689
H     -1.058454     1.056379    -0.399865
H     -1.625022    -0.616852    -0.410052
H     -1.151468     0.150969     1.117809
H      0.745360    -0.490645    -1.203354
H      0.626585    -1.412991     0.288822
H      1.416738     1.264950     0.161551
9
Iteration 0, Energy=-154.0313280910, |grad|=0.529687
C     -0.914069     0.100514     0.014772
C      0.513570    -0.234476    -0.287107
O      1.292786     0.372346     0.816247
H     -1.336126     0.670795    -0.799161
H     -1.566708    -0.850512    -0.064863
H     -1.135637     0.629651     1.094206
H      0.700718    -0.220974    -1.251963
H      0.525274    -1.346695     0.006961
H      1.747097     1.035825     0.420477
9
Iteration -1, Energy=-154.0927121516, |grad|=0.001386
C     -0.914841     0.071212     0.055075
C      0.511634    -0.415052    -0.134674
O      1.449468     0.392030     0.524689
H     -1.058454     1.056379    -0.399865
H     -1.625022    -0.616852    -0.410052
H     -1.151468     0.150969     1.117809
H      0.745360    -0.490645    -1.203354
H      0.626585    -1.412991     0.288822
H      1.416738     1.264950     0.161551
9
Iteration 0, Energy=-154.0927123790, |grad|=0.000453
C     -0.914828     0.071209     0.055074
C      0.511626    -0.415119    -0.134659
O      1.449471     0.392239     0.524609
H     -1.058446     1.056388    -0.399823
H     -1.625029    -0.616839    -0.410104
H     -1.151491     0.150941     1.117828
H      0.745361    -0.490654    -1.203339
H      0.626570    -1.412967     0.288827
H      1.416765     1.264802     0.161587
9
Iteration 0, Energy=-154.0158290766, |grad|=0.533665
C     -0.857590     0.138293    -0.006029
C      0.586285    -0.380825    -0.122286
O      1.185558     0.403869     0.711482
H     -1.343081     0.804749    -0.785464
H     -1.509027    -0.891110     0.083348
H     -1.078404     0.634977     1.078399
H      0.721756    -0.134307    -1.320383
H      0.556409    -1.412673    -0.024601
H      1.905313     0.966898     0.440287
