9
Iteration 0, Energy=-154.0808299299, |grad|=0.128798
C     -0.957263     0.048957     0.042177
C      0.487854    -0.324105    -0.190424
O      1.281648     0.328209     0.738394
H     -1.356428     0.733224    -0.732489
H     -1.592834    -0.861048     0.022160
H     -1.070744     0.594633     1.009659
H      0.787448    -0.140360    -1.234991
H      0.590448    -1.424245    -0.043946
H      1.829871     1.044736     0.389461
9
Iteration 1, Energy=-154.0837996503, |grad|=0.044117
C     -0.977020     0.054531     0.039344
C      0.487693    -0.332548    -0.192952
O      1.302254     0.336299     0.743792
H     -1.353582     0.729531    -0.729129
H     -1.591671    -0.850511     0.025441
H     -1.069217     0.581118     0.999619
H      0.788253    -0.138478    -1.230198
H      0.594696    -1.412625    -0.042175
H      1.818594     1.032682     0.386258
9
Iteration 2, Energy=-154.0842893715, |grad|=0.037178
C     -0.980421     0.055241     0.037367
C      0.486280    -0.331443    -0.191779
O      1.307289     0.332251     0.747786
H     -1.353535     0.729616    -0.729603
H     -1.593526    -0.846437     0.027262
H     -1.069151     0.574516     0.996286
H      0.789041    -0.137246    -1.227614
H      0.597584    -1.408511    -0.040352
H      1.816440     1.032013     0.380648
9
Iteration 3, Energy=-154.0853790570, |grad|=0.031730
C     -0.981548     0.055656     0.025335
C      0.481379    -0.321800    -0.178899
O      1.332781     0.315512     0.755556
H     -1.356907     0.735178    -0.737214
H     -1.609659    -0.832617     0.035078
H     -1.071502     0.546318     0.988652
H      0.794247    -0.129140    -1.214342
H      0.611183    -1.392585    -0.030294
H      1.800026     1.023479     0.356128
9
Iteration 4, Energy=-154.0855821065, |grad|=0.023006
C     -0.983669     0.057162     0.024265
C      0.488936    -0.324526    -0.179249
O      1.335264     0.308956     0.754771
H     -1.357455     0.737536    -0.739569
H     -1.614988    -0.830446     0.034757
H     -1.074031     0.541727     0.990975
H      0.795977    -0.125698    -1.207588
H      0.613361    -1.390190    -0.026654
H      1.796605     1.025478     0.348292
9
Iteration 5, Energy=-154.0857082553, |grad|=0.014947
C     -0.981371     0.056511     0.024385
C      0.489666    -0.324659    -0.177809
O      1.336450     0.307552     0.752015
H     -1.357690     0.739271    -0.740835
H     -1.617819    -0.830161     0.033359
H     -1.075934     0.541339     0.993872
H      0.798007    -0.123674    -1.206081
H      0.614111    -1.392608    -0.024771
H      1.794581     1.026430     0.345867
9
Iteration 6, Energy=-154.0858540779, |grad|=0.013013
C     -0.978894     0.056572     0.025722
C      0.490661    -0.327331    -0.175344
O      1.340822     0.305339     0.746410
H     -1.356516     0.742107    -0.741613
H     -1.623535    -0.828169     0.028995
H     -1.080619     0.539549     0.999209
H      0.803216    -0.119241    -1.202728
H      0.615740    -1.398153    -0.020404
H      1.789125     1.029327     0.339752
9
Iteration 7, Energy=-154.0859556085, |grad|=0.013402
C     -0.978775     0.056127     0.027650
C      0.490948    -0.330097    -0.174257
O      1.346348     0.303834     0.742763
H     -1.353123     0.744264    -0.739809
H     -1.627577    -0.824547     0.023327
H     -1.085250     0.537418     1.003303
H      0.807702    -0.116935    -1.199597
H      0.616821    -1.403571    -0.016576
H      1.782904     1.033508     0.333197
9
Iteration 8, Energy=-154.0860669029, |grad|=0.024399
C     -0.976266     0.059318     0.033393
C      0.492259    -0.339759    -0.167167
O      1.358009     0.301706     0.734422
H     -1.341631     0.749821    -0.731428
H     -1.636276    -0.818648     0.008010
H     -1.094995     0.530785     1.009449
H      0.814881    -0.117636    -1.195568
H      0.617456    -1.410580    -0.010416
H      1.766563     1.044994     0.319306
9
Iteration 9, Energy=-154.0862310795, |grad|=0.013166
C     -0.976701     0.056840     0.036106
C      0.493597    -0.340830    -0.167548
O      1.364975     0.301921     0.731660
H     -1.333341     0.754224    -0.725519
H     -1.638012    -0.813567    -0.001184
H     -1.099638     0.527556     1.013132
H      0.815749    -0.122573    -1.192240
H      0.617082    -1.415104    -0.007260
H      1.756289     1.051533     0.312854
9
Iteration 10, Energy=-154.0864186267, |grad|=0.016273
C     -0.975583     0.054881     0.039261
C      0.495261    -0.343272    -0.165720
O      1.373234     0.302927     0.728256
H     -1.319648     0.762160    -0.715432
H     -1.638807    -0.808268    -0.014853
H     -1.104599     0.521872     1.017193
H      0.813577    -0.134598    -1.190355
H      0.615608    -1.417726    -0.004072
H      1.740957     1.062025     0.305723
9
Iteration 11, Energy=-154.0867586346, |grad|=0.026353
C     -0.970327     0.053521     0.046174
C      0.499037    -0.349988    -0.159442
O      1.390376     0.304262     0.718033
H     -1.288507     0.783886    -0.694105
H     -1.641152    -0.798567    -0.046411
H     -1.114759     0.506246     1.027626
H      0.807345    -0.163441    -1.188006
H      0.613098    -1.423119     0.005457
H      1.704889     1.087201     0.290674
9
Iteration 12, Energy=-154.0874047439, |grad|=0.041349
C     -0.960029     0.053612     0.055157
C      0.507806    -0.366074    -0.146625
O      1.420199     0.310499     0.689162
H     -1.225046     0.835277    -0.652406
H     -1.641285    -0.778566    -0.110722
H     -1.131055     0.468330     1.052656
H      0.789973    -0.226474    -1.187605
H      0.609938    -1.432755     0.032151
H      1.629500     1.136151     0.268232
9
Iteration 13, Energy=-154.0880720834, |grad|=0.075025
C     -0.937459     0.063578     0.069931
C      0.514467    -0.385883    -0.137965
O      1.450280     0.327089     0.638911
H     -1.128738     0.919031    -0.586274
H     -1.632409    -0.748028    -0.209621
H     -1.146377     0.399525     1.085027
H      0.754149    -0.333060    -1.194838
H      0.607994    -1.448316     0.085542
H      1.518094     1.206064     0.249286
9
Iteration 14, Energy=-154.0888353356, |grad|=0.071082
C     -0.927069     0.071969     0.058954
C      0.515112    -0.391893    -0.141326
O      1.433767     0.351787     0.607894
H     -1.090821     0.963038    -0.555548
H     -1.603935    -0.733208    -0.243525
H     -1.132883     0.358990     1.094792
H      0.716314    -0.400091    -1.215118
H      0.608371    -1.439578     0.119717
H      1.481143     1.218985     0.274159
9
Iteration 15, Energy=-154.0902331544, |grad|=0.039713
C     -0.919846     0.076702     0.058355
C      0.513194    -0.407565    -0.136967
O      1.445391     0.348064     0.581111
H     -1.068754     0.984909    -0.536728
H     -1.609222    -0.710491    -0.275524
H     -1.142760     0.331604     1.111286
H      0.721257    -0.412267    -1.212613
H      0.614697    -1.452574     0.152896
H      1.446044     1.241618     0.258184
9
Iteration 16, Energy=-154.0907801657, |grad|=0.029065
C     -0.920880     0.079359     0.058856
C      0.502979    -0.410232    -0.143218
O      1.440368     0.336159     0.580638
H     -1.100333     0.962620    -0.552458
H     -1.620750    -0.702149    -0.256678
H     -1.140648     0.335164     1.101739
H      0.745796    -0.368622    -1.206868
H      0.623428    -1.457058     0.164445
H      1.470040     1.224760     0.253545
9
Iteration 17, Energy=-154.0912524251, |grad|=0.057397
C     -0.909772     0.079226     0.062647
C      0.501181    -0.430086    -0.137962
O      1.458908     0.348814     0.541800
H     -1.050412     1.022530    -0.506869
H     -1.612906    -0.661390    -0.321878
H     -1.135317     0.270916     1.113784
H      0.725386    -0.437886    -1.224158
H      0.626330    -1.451834     0.225648
H      1.396604     1.259711     0.246988
9
Iteration 18, Energy=-154.0918362675, |grad|=0.023833
C     -0.911311     0.083209     0.054563
C      0.507158    -0.422526    -0.142478
O      1.452537     0.348132     0.546728
H     -1.059570     1.013912    -0.507098
H     -1.614622    -0.664410    -0.314984
H     -1.128040     0.272332     1.110264
H      0.723055    -0.437510    -1.223996
H      0.624837    -1.444007     0.224475
H      1.405955     1.250869     0.252525
9
Iteration 19, Energy=-154.0921153294, |grad|=0.014103
C     -0.907378     0.084597     0.051182
C      0.510312    -0.421529    -0.145801
O      1.456596     0.351855     0.538993
H     -1.055927     1.021688    -0.494104
H     -1.619650    -0.653793    -0.329165
H     -1.121722     0.255659     1.110028
H      0.720842    -0.453035    -1.224398
H      0.624007    -1.436628     0.241343
H      1.392920     1.251186     0.251922
9
Iteration 20, Energy=-154.0923275696, |grad|=0.010246
C     -0.905343     0.081984     0.048711
C      0.514579    -0.422959    -0.145913
O      1.464641     0.355668     0.524966
H     -1.052314     1.032273    -0.475750
H     -1.627953    -0.635024    -0.349216
H     -1.114853     0.233178     1.109409
H      0.724522    -0.471902    -1.222307
H      0.622057    -1.427075     0.262643
H      1.374663     1.253856     0.247458
9
Iteration 21, Energy=-154.0924048406, |grad|=0.013086
C     -0.902879     0.083102     0.048384
C      0.514097    -0.426769    -0.146922
O      1.470734     0.362262     0.513072
H     -1.041913     1.042390    -0.459123
H     -1.630022    -0.623493    -0.367089
H     -1.115521     0.218404     1.113595
H      0.726730    -0.490854    -1.219325
H      0.620477    -1.427326     0.274323
H      1.358295     1.262283     0.243085
9
Iteration 22, Energy=-154.0924838088, |grad|=0.007318
C     -0.902544     0.081054     0.049789
C      0.513450    -0.427066    -0.146069
O      1.470615     0.366796     0.504963
H     -1.041064     1.046303    -0.447720
H     -1.631879    -0.614566    -0.375517
H     -1.114699     0.210132     1.112398
H      0.734074    -0.503072    -1.216507
H      0.617831    -1.425543     0.278422
H      1.354216     1.265962     0.240240
9
Iteration 23, Energy=-154.0925039274, |grad|=0.005574
C     -0.902657     0.081700     0.049746
C      0.514524    -0.429016    -0.146205
O      1.468548     0.368911     0.498891
H     -1.037665     1.051855    -0.439094
H     -1.630381    -0.608099    -0.382012
H     -1.115719     0.202440     1.113486
H      0.736621    -0.512975    -1.216279
H      0.617228    -1.425677     0.283575
H      1.349500     1.270861     0.237892
9
Iteration 24, Energy=-154.0925151462, |grad|=0.004665
C     -0.902757     0.081666     0.049909
C      0.513883    -0.428918    -0.146274
O      1.467314     0.369427     0.501152
H     -1.039889     1.050275    -0.439739
H     -1.630516    -0.609515    -0.379413
H     -1.117393     0.204552     1.113166
H      0.738959    -0.511128    -1.215853
H      0.617028    -1.426135     0.280425
H      1.353371     1.269776     0.236627
9
Iteration 25, Energy=-154.0925274609, |grad|=0.004279
C     -0.902520     0.081733     0.050174
C      0.513719    -0.428072    -0.146510
O      1.466047     0.369748     0.503896
H     -1.041578     1.050219    -0.439422
H     -1.630847    -0.610659    -0.377741
H     -1.119429     0.205110     1.112864
H      0.740920    -0.510407    -1.216009
H      0.617105    -1.426550     0.278575
H      1.356583     1.268878     0.234173
9
Iteration 26, Energy=-154.0925478105, |grad|=0.004742
C     -0.903161     0.082035     0.049699
C      0.513970    -0.427346    -0.146725
O      1.463602     0.370224     0.509484
H     -1.045422     1.051273    -0.437354
H     -1.632076    -0.611529    -0.375712
H     -1.123050     0.203484     1.112358
H      0.745291    -0.508892    -1.216140
H      0.617628    -1.426011     0.277216
H      1.363218     1.266762     0.227174
9
Iteration 27, Energy=-154.0925726116, |grad|=0.006694
C     -0.905045     0.081353     0.049412
C      0.513764    -0.425144    -0.145512
O      1.459807     0.372152     0.514607
H     -1.048171     1.055269    -0.432797
H     -1.633712    -0.612064    -0.377871
H     -1.126670     0.197954     1.112932
H      0.749828    -0.507852    -1.214416
H      0.618099    -1.426173     0.278049
H      1.372099     1.264505     0.215595
9
Iteration 28, Energy=-154.0926008361, |grad|=0.007340
C     -0.908118     0.081474     0.049198
C      0.513502    -0.423851    -0.143209
O      1.455388     0.374144     0.521188
H     -1.051716     1.058634    -0.426188
H     -1.636322    -0.612375    -0.382462
H     -1.129480     0.189493     1.112634
H      0.754387    -0.505673    -1.211187
H      0.618183    -1.423729     0.279974
H      1.384176     1.261884     0.200052
9
Iteration 29, Energy=-154.0926310331, |grad|=0.006573
C     -0.911512     0.079960     0.047952
C      0.512351    -0.423089    -0.140478
O      1.452099     0.377924     0.523616
H     -1.051669     1.062430    -0.418377
H     -1.636850    -0.610002    -0.390821
H     -1.130789     0.179238     1.114012
H      0.755668    -0.505297    -1.207152
H      0.617632    -1.421629     0.284831
H      1.393071     1.260464     0.186417
9
Iteration 30, Energy=-154.0926588009, |grad|=0.005474
C     -0.913082     0.078798     0.049023
C      0.510785    -0.422465    -0.138032
O      1.449181     0.381215     0.523603
H     -1.049969     1.063404    -0.412127
H     -1.636177    -0.607509    -0.400202
H     -1.131253     0.170323     1.114482
H      0.753607    -0.504149    -1.203288
H      0.616458    -1.419675     0.290279
H      1.400450     1.260058     0.176263
9
Iteration 31, Energy=-154.0926717601, |grad|=0.009870
C     -0.913430     0.075767     0.049765
C      0.507907    -0.421166    -0.133583
O      1.446322     0.384422     0.527141
H     -1.049305     1.061551    -0.406980
H     -1.633780    -0.605723    -0.407692
H     -1.135946     0.163240     1.115762
H      0.750611    -0.499760    -1.201438
H      0.614969    -1.417301     0.293368
H      1.412650     1.258970     0.163657
9
Iteration 32, Energy=-154.0926896462, |grad|=0.003442
C     -0.913219     0.076102     0.051187
C      0.508959    -0.421190    -0.134653
O      1.445883     0.385915     0.526471
H     -1.047944     1.060836    -0.406459
H     -1.631936    -0.605214    -0.408694
H     -1.138198     0.162625     1.115869
H      0.748312    -0.499952    -1.201688
H      0.614819    -1.417623     0.294214
H      1.413326     1.258500     0.163752
9
Iteration 33, Energy=-154.0926956538, |grad|=0.003055
C     -0.913750     0.076075     0.052140
C      0.509221    -0.420170    -0.134364
O      1.443977     0.387391     0.529124
H     -1.048926     1.061594    -0.403991
H     -1.631689    -0.605532    -0.410049
H     -1.142006     0.159956     1.115921
H      0.749200    -0.499125    -1.200988
H      0.614958    -1.417331     0.294391
H      1.419016     1.257141     0.157815
9
Iteration 34, Energy=-154.0927008966, |grad|=0.002898
C     -0.913703     0.075977     0.052863
C      0.509251    -0.419394    -0.133337
O      1.443850     0.388567     0.529807
H     -1.048733     1.062080    -0.402441
H     -1.630942    -0.605814    -0.411536
H     -1.145796     0.158156     1.116276
H      0.748338    -0.498845    -1.201036
H      0.615437    -1.416745     0.294692
H      1.422298     1.256018     0.154712
9
Iteration 35, Energy=-154.0927071427, |grad|=0.002703
C     -0.914359     0.075503     0.053663
C      0.508902    -0.418327    -0.131999
O      1.444275     0.389735     0.530131
H     -1.048094     1.062838    -0.399590
H     -1.629522    -0.605618    -0.414616
H     -1.151075     0.154884     1.116720
H      0.746585    -0.498585    -1.199986
H      0.616296    -1.415585     0.295812
H      1.426992     1.255153     0.149865
9
Iteration 36, Energy=-154.0927143778, |grad|=0.003216
C     -0.915847     0.075799     0.055099
C      0.508688    -0.417826    -0.129409
O      1.446584     0.390390     0.527220
H     -1.047428     1.065203    -0.395167
H     -1.627286    -0.605116    -0.419044
H     -1.159480     0.150604     1.116449
H      0.744186    -0.499675    -1.198288
H      0.618876    -1.414304     0.297717
H      1.431707     1.254925     0.145422
9
Iteration 37, Energy=-154.0927151963, |grad|=0.003879
C     -0.915803     0.076180     0.054565
C      0.507837    -0.417908    -0.129605
O      1.449313     0.390287     0.525390
H     -1.047214     1.065825    -0.393092
H     -1.627005    -0.604407    -0.421726
H     -1.161519     0.148879     1.116676
H      0.742627    -0.500581    -1.196630
H      0.619972    -1.413876     0.299658
H      1.431793     1.255603     0.144764
9
Iteration 38, Energy=-154.0927178097, |grad|=0.000936
C     -0.915847     0.075818     0.054674
C      0.508390    -0.418074    -0.129752
O      1.448591     0.389846     0.525557
H     -1.047428     1.065450    -0.394292
H     -1.627222    -0.604287    -0.420464
H     -1.159627     0.150084     1.116361
H      0.743244    -0.500466    -1.197356
H      0.619371    -1.414209     0.299089
H      1.430527     1.255838     0.146183
9
Iteration 39, Energy=-154.0927181592, |grad|=0.000685
C     -0.915780     0.075868     0.054632
C      0.508598    -0.418240    -0.129799
O      1.448846     0.389657     0.525275
H     -1.047598     1.065406    -0.394374
H     -1.627322    -0.604109    -0.420415
H     -1.159275     0.150290     1.116259
H      0.743275    -0.500679    -1.197507
H      0.619314    -1.414225     0.299204
H      1.429943     1.256032     0.146726
9
Iteration 40, Energy=-154.0927187107, |grad|=0.000651
C     -0.915576     0.075862     0.054621
C      0.508970    -0.418393    -0.129840
O      1.449753     0.389383     0.524469
H     -1.048084     1.065535    -0.394015
H     -1.627405    -0.603481    -0.420917
H     -1.159164     0.150199     1.116060
H      0.743149    -0.501371    -1.197699
H      0.619310    -1.414137     0.299896
H      1.429048     1.256403     0.147424
9
Iteration 41, Energy=-154.0927188508, |grad|=0.001182
C     -0.915504     0.076066     0.054541
C      0.509260    -0.418478    -0.129872
O      1.450012     0.389559     0.524379
H     -1.048754     1.065635    -0.393167
H     -1.627206    -0.602944    -0.421455
H     -1.159837     0.149493     1.116155
H      0.743408    -0.501981    -1.197866
H      0.619162    -1.413729     0.300405
H      1.429458     1.256380     0.146881
