14
Iteration 0, Energy=-156.1988297234, |grad|=2.146364
C     -1.770279     0.770974     0.311457
C      0.107911    -0.555794    -0.990260
C      0.234652    -0.164337     0.009355
C      1.656783     0.239446     0.794146
H     -0.691055     0.588360     0.557476
H     -2.686766    -0.392969     0.475454
H     -2.156549     0.843939    -0.710197
H     -0.713089    -0.381106    -1.913685
H     -1.515900    -1.642674    -0.962964
H      0.422322    -1.191754     0.849739
H      1.476015    -1.756473    -0.777922
H      2.876624     0.801175     0.954896
H      0.836065     0.815937     1.379830
H      1.521406     0.852182    -0.534532
14
Iteration 1, Energy=-156.4565693844, |grad|=0.765374
C     -1.826509     0.746629     0.325015
C      0.138725    -0.624078    -1.220204
C      0.261726    -0.116841     0.213051
C      1.659531     0.295258     0.772767
H     -0.670041     0.593765     0.568150
H     -2.659431    -0.365763     0.477226
H     -2.152561     0.850416    -0.724014
H     -0.685064    -0.379478    -1.905365
H     -1.568944    -1.684326    -0.955883
H      0.406664    -1.199943     0.859086
H      1.456663    -1.743062    -0.794239
H      2.844009     0.780354     0.946473
H      0.860298     0.819525     1.383558
H      1.533077     0.854449    -0.502829
14
Iteration 2, Energy=-156.5412582290, |grad|=0.695124
C     -1.871310     0.731021     0.327659
C      0.138702    -0.661183    -1.222359
C      0.269292    -0.170168     0.238039
C      1.664488     0.338571     0.747613
H     -0.653998     0.595164     0.573520
H     -2.638694    -0.344658     0.478182
H     -2.145971     0.853011    -0.725297
H     -0.673985    -0.379391    -1.908339
H     -1.555018    -1.678821    -0.957905
H      0.387382    -1.181604     0.849658
H      1.436957    -1.727378    -0.811518
H      2.819420     0.762911     0.942823
H      0.877450     0.829431     1.389887
H      1.543426     0.859998    -0.479172
14
Iteration 3, Energy=-156.7507374598, |grad|=0.498768
C     -1.982153     0.667135     0.358863
C      0.136583    -0.809813    -1.195290
C      0.283194    -0.291895     0.317695
C      1.628418     0.492145     0.625080
H     -0.608736     0.572492     0.575899
H     -2.570159    -0.267047     0.480919
H     -2.129406     0.860263    -0.743344
H     -0.621115    -0.378324    -1.920508
H     -1.485906    -1.655784    -0.966275
H      0.326250    -1.150134     0.838862
H      1.346240    -1.665417    -0.890352
H      2.748387     0.684868     0.938937
H      0.945540     0.879700     1.403225
H      1.581005     0.888716    -0.380917
14
Iteration 4, Energy=-156.8551850265, |grad|=1.162582
C     -2.144691     0.637638     0.363575
C      0.092043    -1.071385    -1.124896
C      0.303412    -0.360948     0.339220
C      1.571830     0.678849     0.518602
H     -0.519680     0.506936     0.585885
H     -2.489679    -0.200122     0.493784
H     -2.094299     0.863923    -0.733706
H     -0.488928    -0.387427    -1.923301
H     -1.324276    -1.610841    -0.982376
H      0.231730    -1.201722     0.900836
H      1.152525    -1.548332    -1.048024
H      2.621038     0.540972     0.926052
H      1.059140     0.993190     1.416920
H      1.627978     0.986174    -0.289780
14
Iteration 5, Energy=-157.0050936442, |grad|=0.511560
C     -2.194314     0.715694     0.339368
C      0.013635    -1.182789    -1.059484
C      0.310216    -0.378582     0.298429
C      1.543279     0.689724     0.596606
H     -0.470315     0.460538     0.589828
H     -2.485320    -0.253121     0.510762
H     -2.074899     0.861328    -0.713065
H     -0.402280    -0.404158    -1.912812
H     -1.189262    -1.573830    -0.992926
H      0.186498    -1.236038     0.948587
H      1.043796    -1.496593    -1.136440
H      2.553346     0.466345     0.913200
H      1.112600     1.066972     1.420801
H      1.651162     1.091414    -0.360061
14
Iteration 6, Energy=-157.0562014492, |grad|=0.355395
C     -2.213255     0.762618     0.339647
C     -0.066348    -1.184587    -1.028798
C      0.301774    -0.386849     0.284732
C      1.531681     0.659149     0.584861
H     -0.447861     0.425267     0.585166
H     -2.486184    -0.288679     0.518997
H     -2.065347     0.859892    -0.714553
H     -0.347445    -0.425660    -1.894911
H     -1.085626    -1.558331    -0.995192
H      0.170654    -1.238718     0.973672
H      0.995864    -1.493838    -1.186500
H      2.530049     0.422804     0.908727
H      1.121894     1.126031     1.445685
H      1.658292     1.147807    -0.378739
14
Iteration 7, Energy=-157.0929898485, |grad|=0.225571
C     -2.211005     0.789519     0.361269
C     -0.055077    -1.052882    -1.046837
C      0.271704    -0.373252     0.290739
C      1.512734     0.581691     0.577613
H     -0.448714     0.392467     0.575718
H     -2.497308    -0.310858     0.518860
H     -2.062065     0.857756    -0.734080
H     -0.311634    -0.452901    -1.862553
H     -1.044729    -1.592877    -0.981847
H      0.183285    -1.220060     0.994448
H      0.956861    -1.537958    -1.211268
H      2.539980     0.391383     0.904420
H      1.113130     1.167709     1.451131
H      1.650982     1.187170    -0.394821
14
Iteration 8, Energy=-157.1100847438, |grad|=0.215936
C     -2.252171     0.802077     0.372330
C     -0.048756    -1.058883    -1.022876
C      0.266708    -0.389551     0.318807
C      1.474056     0.593509     0.566748
H     -0.440271     0.354165     0.575321
H     -2.487326    -0.308002     0.521837
H     -2.053483     0.856869    -0.738858
H     -0.248296    -0.440401    -1.869042
H     -0.945299    -1.610061    -0.972032
H      0.168501    -1.205810     1.024875
H      0.855565    -1.545304    -1.277579
H      2.505965     0.312517     0.891225
H      1.147928     1.222833     1.435971
H      1.655020     1.242948    -0.383934
14
Iteration 9, Energy=-157.1301701081, |grad|=0.117707
C     -2.262612     0.799618     0.358402
C     -0.028303    -1.004182    -1.010643
C      0.290156    -0.376676     0.339545
C      1.477092     0.603819     0.562149
H     -0.494600     0.345384     0.584629
H     -2.492906    -0.295206     0.520038
H     -2.059662     0.855135    -0.718195
H     -0.208360    -0.387004    -1.891164
H     -0.890926    -1.665639    -0.951919
H      0.178265    -1.187437     1.062803
H      0.819421    -1.609300    -1.326579
H      2.467997     0.243223     0.866055
H      1.166589     1.250352     1.396427
H      1.635992     1.254819    -0.348755
14
Iteration 10, Energy=-157.1370717179, |grad|=0.083687
C     -2.278263     0.790491     0.367414
C      0.005370    -1.000227    -1.020889
C      0.279139    -0.351380     0.334373
C      1.488614     0.615129     0.558445
H     -0.533392     0.330561     0.595445
H     -2.500483    -0.277182     0.515924
H     -2.065026     0.854585    -0.719719
H     -0.185761    -0.337249    -1.886792
H     -0.853242    -1.690368    -0.934577
H      0.197919    -1.163238     1.090807
H      0.804325    -1.651472    -1.350856
H      2.436929     0.186695     0.840640
H      1.181683     1.270627     1.372629
H      1.620330     1.249933    -0.320051
14
Iteration 11, Energy=-157.1398300399, |grad|=0.070012
C     -2.283182     0.789595     0.364783
C      0.019153    -1.002423    -1.028890
C      0.280386    -0.345341     0.331415
C      1.464654     0.613634     0.551097
H     -0.563181     0.324755     0.600471
H     -2.510481    -0.270723     0.513031
H     -2.073402     0.854312    -0.713414
H     -0.176927    -0.312996    -1.867712
H     -0.836269    -1.689296    -0.927289
H      0.219199    -1.135429     1.095973
H      0.815882    -1.674561    -1.357658
H      2.433058     0.148647     0.826164
H      1.193286     1.281051     1.364106
H      1.615967     1.245681    -0.309285
14
Iteration 12, Energy=-157.1417991516, |grad|=0.046392
C     -2.283309     0.790051     0.365816
C      0.029723    -1.015118    -1.034872
C      0.270166    -0.338119     0.330957
C      1.460692     0.601114     0.547579
H     -0.579900     0.317175     0.598868
H     -2.521540    -0.268934     0.510639
H     -2.082086     0.855064    -0.712827
H     -0.176188    -0.301883    -1.845974
H     -0.835188    -1.676192    -0.926635
H      0.240270    -1.114322     1.093805
H      0.837766    -1.680030    -1.352490
H      2.421398     0.132552     0.811920
H      1.199870     1.283957     1.366167
H      1.616468     1.241590    -0.310161
14
Iteration 13, Energy=-157.1432636446, |grad|=0.040186
C     -2.286381     0.794197     0.371667
C      0.037997    -1.022849    -1.030146
C      0.260201    -0.335844     0.325046
C      1.453418     0.602560     0.545131
H     -0.595452     0.304447     0.592658
H     -2.537764    -0.270658     0.508586
H     -2.093533     0.857425    -0.718035
H     -0.169672    -0.296678    -1.818842
H     -0.835111    -1.660237    -0.930821
H      0.263164    -1.097222     1.098753
H      0.863993    -1.677215    -1.345509
H      2.403601     0.108730     0.793091
H      1.212890     1.280918     1.367797
H      1.620792     1.239334    -0.316582
14
Iteration 14, Energy=-157.1447222561, |grad|=0.044759
C     -2.293724     0.796926     0.369550
C      0.055695    -1.029442    -1.019672
C      0.262513    -0.330020     0.333306
C      1.446499     0.603072     0.531537
H     -0.616474     0.283826     0.580440
H     -2.563509    -0.269806     0.506694
H     -2.113751     0.862555    -0.716493
H     -0.151667    -0.290499    -1.791318
H     -0.837434    -1.649280    -0.940636
H      0.288967    -1.084641     1.114909
H      0.888117    -1.659497    -1.332896
H      2.371005     0.071924     0.764100
H      1.232615     1.278640     1.376580
H      1.629290     1.243146    -0.333307
14
Iteration 15, Energy=-157.1456611566, |grad|=0.038110
C     -2.307437     0.792925     0.370989
C      0.059839    -1.021307    -1.003175
C      0.259604    -0.335020     0.347789
C      1.446265     0.613822     0.526770
H     -0.631098     0.263890     0.570266
H     -2.588205    -0.261748     0.504579
H     -2.133164     0.868467    -0.718353
H     -0.127735    -0.282795    -1.778211
H     -0.830968    -1.647335    -0.950697
H      0.307395    -1.076489     1.133621
H      0.908341    -1.645529    -1.322041
H      2.345984     0.037948     0.736368
H      1.254456     1.271579     1.376365
H      1.634865     1.248496    -0.351476
14
Iteration 16, Energy=-157.1462019548, |grad|=0.025509
C     -2.314776     0.796301     0.370333
C      0.064758    -1.016575    -0.995887
C      0.260695    -0.332487     0.348781
C      1.446384     0.615510     0.519532
H     -0.635441     0.258456     0.570206
H     -2.601332    -0.262526     0.504144
H     -2.142192     0.871117    -0.718607
H     -0.116395    -0.278022    -1.780056
H     -0.827507    -1.651705    -0.955881
H      0.310471    -1.081197     1.146819
H      0.911501    -1.636146    -1.312832
H      2.343496     0.028854     0.725783
H      1.264501     1.268231     1.376528
H      1.633979     1.247096    -0.356071
14
Iteration 17, Energy=-157.1466727716, |grad|=0.027264
C     -2.323688     0.798006     0.369478
C      0.064776    -1.011110    -0.994254
C      0.262675    -0.333659     0.354584
C      1.449961     0.613618     0.514272
H     -0.636313     0.257992     0.574166
H     -2.613381    -0.261477     0.503563
H     -2.150489     0.873620    -0.718720
H     -0.106343    -0.275458    -1.786685
H     -0.822563    -1.657478    -0.961166
H      0.307813    -1.086902     1.154694
H      0.913345    -1.626214    -1.300407
H      2.348309     0.029475     0.717539
H      1.273479     1.263002     1.375106
H      1.630560     1.243491    -0.359377
14
Iteration 18, Energy=-157.1476554323, |grad|=0.040243
C     -2.354275     0.800477     0.367095
C      0.070253    -1.000112    -0.988011
C      0.258774    -0.333970     0.364383
C      1.453729     0.600078     0.506490
H     -0.640701     0.255745     0.590483
H     -2.652241    -0.253296     0.500001
H     -2.178462     0.880812    -0.717474
H     -0.077424    -0.264168    -1.794797
H     -0.805086    -1.668347    -0.976404
H      0.305731    -1.092972     1.171267
H      0.930668    -1.604881    -1.265408
H      2.364514     0.023796     0.687059
H      1.304053     1.250680     1.369638
H      1.618607     1.233062    -0.371528
14
Iteration 19, Energy=-157.1483614272, |grad|=0.076168
C     -2.419399     0.817618     0.367200
C      0.086349    -0.986392    -0.981003
C      0.246217    -0.342211     0.392939
C      1.469912     0.586552     0.477701
H     -0.650443     0.252051     0.624713
H     -2.737351    -0.245923     0.492167
H     -2.238087     0.895336    -0.719799
H     -0.020090    -0.249109    -1.788529
H     -0.769359    -1.677639    -1.009349
H      0.304423    -1.093497     1.189917
H      0.979424    -1.565594    -1.198380
H      2.386975     0.002209     0.618449
H      1.368317     1.228555     1.364939
H      1.591253     1.204949    -0.388172
14
Iteration 20, Energy=-157.1494818401, |grad|=0.029466
C     -2.436385     0.817066     0.367518
C      0.092066    -0.989569    -0.980147
C      0.246811    -0.336850     0.391996
C      1.468482     0.575960     0.487846
H     -0.652159     0.254481     0.635860
H     -2.752325    -0.238946     0.489582
H     -2.249594     0.897583    -0.719317
H     -0.010901    -0.244651    -1.783061
H     -0.758487    -1.677543    -1.014841
H      0.303354    -1.091846     1.189701
H      0.990006    -1.565009    -1.189685
H      2.391747    -0.002920     0.603319
H      1.382147     1.225660     1.359155
H      1.583382     1.203489    -0.395131
14
Iteration 21, Energy=-157.1499949798, |grad|=0.021503
C     -2.455781     0.819124     0.367724
C      0.102224    -0.992684    -0.976480
C      0.243468    -0.333830     0.393450
C      1.469183     0.569827     0.490537
H     -0.652199     0.255303     0.645614
H     -2.770689    -0.233264     0.486636
H     -2.263662     0.900245    -0.718836
H     -0.001092    -0.242592    -1.770024
H     -0.748820    -1.674289    -1.021796
H      0.304372    -1.087135     1.186262
H      1.006236    -1.565333    -1.182518
H      2.391532    -0.013090     0.584643
H      1.398298     1.224322     1.357485
H      1.575072     1.200302    -0.399902
14
Iteration 22, Energy=-157.1504081332, |grad|=0.020814
C     -2.484391     0.825278     0.366485
C      0.115235    -0.994014    -0.968416
C      0.242661    -0.332498     0.398912
C      1.472805     0.565321     0.489968
H     -0.646504     0.258963     0.657059
H     -2.796358    -0.228334     0.483250
H     -2.282963     0.904236    -0.717826
H      0.012741    -0.242463    -1.757199
H     -0.736322    -1.672689    -1.031945
H      0.301118    -1.087745     1.182768
H      1.024604    -1.564553    -1.173942
H      2.391564    -0.023081     0.560885
H      1.420749     1.221889     1.357558
H      1.563204     1.196595    -0.404765
14
Iteration 23, Energy=-157.1507273834, |grad|=0.028203
C     -2.528889     0.831681     0.365819
C      0.132187    -0.997688    -0.962513
C      0.248839    -0.330876     0.407513
C      1.475307     0.567433     0.486441
H     -0.634694     0.267892     0.666158
H     -2.830745    -0.219015     0.478680
H     -2.309658     0.910583    -0.718651
H      0.031078    -0.244256    -1.740936
H     -0.719165    -1.670559    -1.041814
H      0.296340    -1.097734     1.184220
H      1.044851    -1.564932    -1.165685
H      2.392616    -0.036547     0.530429
H      1.452731     1.216987     1.359569
H      1.547344     1.193936    -0.406438
14
Iteration 24, Energy=-157.1510010079, |grad|=0.017907
C     -2.560844     0.842326     0.361346
C      0.143677    -0.996350    -0.954085
C      0.252813    -0.335663     0.413892
C      1.486544     0.563843     0.485997
H     -0.621658     0.276951     0.669533
H     -2.855288    -0.217993     0.476350
H     -2.328513     0.915051    -0.716829
H      0.042947    -0.244344    -1.738531
H     -0.708448    -1.673716    -1.045814
H      0.290411    -1.108012     1.185825
H      1.054113    -1.567718    -1.162697
H      2.393253    -0.037408     0.511946
H      1.474111     1.213711     1.362375
H      1.535024     1.196228    -0.406518
14
Iteration 25, Energy=-157.1511423528, |grad|=0.012941
C     -2.566773     0.843850     0.359970
C      0.143589    -0.996022    -0.954320
C      0.256653    -0.337262     0.416358
C      1.486318     0.564506     0.485249
H     -0.618674     0.277748     0.664445
H     -2.858656    -0.217895     0.476294
H     -2.331658     0.916183    -0.716851
H      0.044568    -0.243773    -1.741081
H     -0.707646    -1.675192    -1.042776
H      0.291158    -1.110580     1.189067
H      1.052318    -1.569124    -1.164387
H      2.395449    -0.037441     0.510738
H      1.477007     1.212368     1.364242
H      1.534489     1.199539    -0.404155
14
Iteration 26, Energy=-157.1513889187, |grad|=0.015129
C     -2.586248     0.847177     0.357487
C      0.145392    -0.996669    -0.956600
C      0.265450    -0.340932     0.418860
C      1.490612     0.565649     0.486159
H     -0.609636     0.279376     0.648806
H     -2.868151    -0.215948     0.475677
H     -2.341130     0.919500    -0.718519
H      0.047816    -0.243663    -1.745320
H     -0.705828    -1.678291    -1.031520
H      0.294819    -1.115257     1.197145
H      1.046280    -1.575607    -1.171625
H      2.401799    -0.035848     0.507120
H      1.484803     1.207602     1.369676
H      1.532163     1.209817    -0.394554
14
Iteration 27, Energy=-157.1516521016, |grad|=0.027980
C     -2.625871     0.857166     0.351280
C      0.152085    -1.000600    -0.954382
C      0.279655    -0.345005     0.419286
C      1.498059     0.562313     0.488026
H     -0.601716     0.280737     0.634186
H     -2.896522    -0.212739     0.472700
H     -2.366727     0.925986    -0.718668
H      0.058162    -0.243744    -1.743072
H     -0.698260    -1.679526    -1.019977
H      0.301732    -1.112774     1.203657
H      1.050319    -1.584665    -1.176156
H      2.416610    -0.038121     0.488999
H      1.505970     1.196580     1.378957
H      1.524645     1.221298    -0.382044
14
Iteration 28, Energy=-157.1520270385, |grad|=0.023592
C     -2.680385     0.867309     0.345593
C      0.165462    -1.005888    -0.953015
C      0.292074    -0.346212     0.421241
C      1.513085     0.557346     0.490469
H     -0.589528     0.278616     0.615380
H     -2.935413    -0.205088     0.467976
H     -2.402149     0.934963    -0.721258
H      0.071660    -0.245714    -1.738524
H     -0.690445    -1.681559    -1.005344
H      0.312089    -1.107277     1.211391
H      1.055829    -1.595518    -1.180597
H      2.436049    -0.038896     0.463498
H      1.534010     1.178710     1.391475
H      1.515802     1.236113    -0.365491
14
Iteration 29, Energy=-157.1523817263, |grad|=0.033126
C     -2.768100     0.880849     0.336614
C      0.180652    -1.016539    -0.946468
C      0.318401    -0.349433     0.415198
C      1.544687     0.556922     0.495966
H     -0.573553     0.272954     0.585819
H     -2.998154    -0.189767     0.459045
H     -2.462594     0.949384    -0.726777
H      0.086687    -0.257039    -1.730115
H     -0.680744    -1.679528    -0.980431
H      0.332030    -1.091625     1.220293
H      1.067321    -1.619324    -1.191334
H      2.464453    -0.031163     0.424072
H      1.575183     1.138541     1.413818
H      1.511873     1.262675    -0.332907
14
Iteration 30, Energy=-157.1526946098, |grad|=0.016675
C     -2.812956     0.891703     0.330744
C      0.199793    -1.025363    -0.943114
C      0.327353    -0.343671     0.415174
C      1.555269     0.550974     0.494974
H     -0.564665     0.269618     0.582198
H     -3.036218    -0.184308     0.453751
H     -2.497719     0.956768    -0.727510
H      0.095975    -0.264330    -1.721478
H     -0.675441    -1.677933    -0.976106
H      0.340409    -1.083838     1.221293
H      1.076908    -1.626043    -1.188842
H      2.478133    -0.029606     0.397738
H      1.600314     1.118781     1.427266
H      1.510987     1.274155    -0.323297
14
Iteration 31, Energy=-157.1528401461, |grad|=0.014498
C     -2.811116     0.891761     0.330849
C      0.200033    -1.025797    -0.942169
C      0.326259    -0.343011     0.415227
C      1.555122     0.553294     0.493637
H     -0.563926     0.268937     0.587327
H     -3.037391    -0.184505     0.453194
H     -2.499798     0.956688    -0.727964
H      0.093212    -0.268897    -1.722168
H     -0.677149    -1.676779    -0.979092
H      0.340867    -1.082628     1.218390
H      1.078407    -1.626600    -1.186702
H      2.476621    -0.025960     0.397411
H      1.598986     1.114511     1.429123
H      1.518014     1.275893    -0.324272
14
Iteration 32, Energy=-157.1530960223, |grad|=0.019057
C     -2.834035     0.895798     0.329455
C      0.203840    -1.031400    -0.937025
C      0.333756    -0.340502     0.411658
C      1.561022     0.557595     0.492386
H     -0.555391     0.268948     0.595259
H     -3.062255    -0.179960     0.448680
H     -2.526303     0.961623    -0.732800
H      0.091013    -0.284271    -1.727351
H     -0.677512    -1.675422    -0.980794
H      0.349371    -1.082088     1.217437
H      1.084654    -1.635375    -1.181252
H      2.481840    -0.015125     0.383118
H      1.608992     1.091886     1.443679
H      1.539149     1.295199    -0.319658
14
Iteration 33, Energy=-157.1532302923, |grad|=0.025628
C     -2.873465     0.904644     0.321873
C      0.210430    -1.038455    -0.941388
C      0.346329    -0.343766     0.411178
C      1.576148     0.565229     0.489466
H     -0.545341     0.269735     0.594459
H     -3.101524    -0.174523     0.442776
H     -2.567839     0.970066    -0.735998
H      0.094156    -0.301153    -1.733125
H     -0.675830    -1.677979    -0.971769
H      0.366724    -1.075565     1.217100
H      1.086786    -1.648531    -1.176341
H      2.497437    -0.007058     0.361622
H      1.626637     1.063771     1.462323
H      1.557494     1.320489    -0.299384
14
Iteration 34, Energy=-157.1533695245, |grad|=0.013030
C     -2.882480     0.905439     0.321480
C      0.210129    -1.039126    -0.940254
C      0.349074    -0.341994     0.410394
C      1.578201     0.563920     0.490828
H     -0.541612     0.270316     0.592277
H     -3.108813    -0.172626     0.441882
H     -2.574834     0.971971    -0.737576
H      0.097031    -0.300918    -1.736367
H     -0.673758    -1.680273    -0.969088
H      0.369865    -1.077552     1.219196
H      1.086568    -1.650964    -1.176033
H      2.500571    -0.007690     0.357800
H      1.631390     1.061193     1.463182
H      1.556810     1.325209    -0.294927
14
Iteration 35, Energy=-157.1535056883, |grad|=0.010153
C     -2.905024     0.908181     0.319375
C      0.211298    -1.041002    -0.940255
C      0.356505    -0.339517     0.408562
C      1.585209     0.562217     0.491898
H     -0.534284     0.271976     0.591394
H     -3.130764    -0.167992     0.438836
H     -2.597000     0.977168    -0.741338
H      0.103239    -0.304955    -1.743636
H     -0.669903    -1.685844    -0.963193
H      0.380468    -1.078115     1.220273
H      1.086227    -1.657110    -1.172013
H      2.508922    -0.007850     0.346598
H      1.643353     1.051287     1.467634
H      1.559896     1.338463    -0.281342
14
Iteration 36, Energy=-157.1536031168, |grad|=0.010917
C     -2.921427     0.910723     0.317542
C      0.212312    -1.042072    -0.940546
C      0.361433    -0.336979     0.406200
C      1.591812     0.561126     0.491721
H     -0.528350     0.273742     0.596001
H     -3.151340    -0.164671     0.435776
H     -2.618365     0.981663    -0.744930
H      0.108447    -0.310968    -1.750849
H     -0.666599    -1.690897    -0.959841
H      0.391445    -1.077279     1.217231
H      1.085887    -1.661387    -1.165059
H      2.514600    -0.008036     0.337289
H      1.653463     1.042233     1.470569
H      1.564826     1.349707    -0.268312
14
Iteration 37, Energy=-157.1536841813, |grad|=0.015944
C     -2.946992     0.913511     0.315957
C      0.216939    -1.041293    -0.939598
C      0.369173    -0.332639     0.405973
C      1.599771     0.559498     0.491316
H     -0.517654     0.276854     0.606060
H     -3.186463    -0.157595     0.429750
H     -2.654989     0.988602    -0.751439
H      0.118105    -0.323923    -1.757276
H     -0.660309    -1.694506    -0.956011
H      0.407193    -1.076171     1.206524
H      1.089877    -1.667014    -1.153678
H      2.521373    -0.011499     0.322196
H      1.673888     1.028832     1.475735
H      1.568232     1.364247    -0.252718
14
Iteration 38, Energy=-157.1537321169, |grad|=0.008862
C     -2.955949     0.916454     0.313586
C      0.220163    -1.043442    -0.938106
C      0.371181    -0.330804     0.403047
C      1.608095     0.561563     0.490554
H     -0.512849     0.279394     0.614005
H     -3.205398    -0.156168     0.426553
H     -2.675584     0.991978    -0.753836
H      0.122518    -0.330047    -1.763773
H     -0.657279    -1.695551    -0.953883
H      0.416412    -1.077846     1.200983
H      1.090334    -1.668422    -1.146030
H      2.521674    -0.012420     0.315946
H      1.683745     1.021811     1.477441
H      1.571079     1.370407    -0.243693
14
Iteration 39, Energy=-157.1537557365, |grad|=0.004440
C     -2.959851     0.917408     0.313164
C      0.221896    -1.043646    -0.938037
C      0.373242    -0.331424     0.403904
C      1.608102     0.561355     0.490679
H     -0.513039     0.278639     0.611163
H     -3.207245    -0.155748     0.426281
H     -2.677017     0.992285    -0.753533
H      0.122938    -0.330038    -1.760638
H     -0.657240    -1.693616    -0.952813
H      0.415275    -1.077144     1.202491
H      1.092594    -1.669423    -1.148050
H      2.522852    -0.011886     0.313884
H      1.685903     1.020367     1.479282
H      1.569733     1.369778    -0.244985
14
Iteration 40, Energy=-157.1537714973, |grad|=0.004020
C     -2.963717     0.917895     0.313066
C      0.224171    -1.043649    -0.937712
C      0.375043    -0.331875     0.405079
C      1.609029     0.561532     0.491099
H     -0.512247     0.278354     0.610080
H     -3.211994    -0.154671     0.425394
H     -2.681813     0.993087    -0.754294
H      0.124544    -0.330255    -1.759137
H     -0.656578    -1.691478    -0.951249
H      0.415381    -1.077717     1.202926
H      1.095062    -1.670061    -1.148442
H      2.523241    -0.011950     0.311372
H      1.689902     1.018764     1.480070
H      1.568118     1.368928    -0.245459
14
Iteration 41, Energy=-157.1537956659, |grad|=0.005722
C     -2.973446     0.919523     0.311957
C      0.228776    -1.043229    -0.936390
C      0.379351    -0.332475     0.407015
C      1.612218     0.561059     0.491216
H     -0.508779     0.278189     0.610218
H     -3.227782    -0.152110     0.422666
H     -2.698378     0.995892    -0.756692
H      0.129773    -0.331468    -1.759008
H     -0.653990    -1.687848    -0.947236
H      0.418358    -1.080199     1.203250
H      1.100143    -1.671848    -1.146668
H      2.524650    -0.012278     0.304279
H      1.701098     1.014464     1.482089
H      1.566149     1.369235    -0.243904
14
Iteration 42, Energy=-157.1538136320, |grad|=0.008525
C     -2.985697     0.920374     0.311469
C      0.236058    -1.043240    -0.935490
C      0.384163    -0.333748     0.409816
C      1.616998     0.560887     0.493024
H     -0.503613     0.277001     0.611918
H     -3.250809    -0.147743     0.418647
H     -2.722972     1.000154    -0.761701
H      0.137591    -0.332490    -1.759242
H     -0.650477    -1.683458    -0.942303
H      0.422919    -1.083882     1.204604
H      1.104910    -1.672984    -1.142760
H      2.527743    -0.012427     0.293869
H      1.715855     1.008371     1.482962
H      1.565474     1.370092    -0.242020
14
Iteration 43, Energy=-157.1538347626, |grad|=0.004643
C     -2.989180     0.920629     0.310816
C      0.236836    -1.042484    -0.934198
C      0.386136    -0.333902     0.410511
C      1.619604     0.559868     0.491939
H     -0.501425     0.276475     0.614380
H     -3.261266    -0.146238     0.416913
H     -2.734454     1.002078    -0.763797
H      0.141536    -0.332527    -1.760615
H     -0.648306    -1.682620    -0.941068
H      0.425678    -1.085639     1.204680
H      1.106626    -1.673563    -1.140003
H      2.528738    -0.012579     0.289978
H      1.721617     1.006933     1.483077
H      1.566002     1.370475    -0.239821
14
Iteration 44, Energy=-157.1538527576, |grad|=0.004113
C     -2.991866     0.920700     0.309860
C      0.238082    -1.041702    -0.932839
C      0.388020    -0.333989     0.411237
C      1.622289     0.558398     0.491147
H     -0.499229     0.275130     0.617738
H     -3.272879    -0.144734     0.415056
H     -2.747444     1.004220    -0.766108
H      0.145958    -0.331993    -1.761384
H     -0.646463    -1.682500    -0.940757
H      0.428750    -1.086976     1.205262
H      1.107400    -1.673762    -1.136736
H      2.530908    -0.012651     0.285618
H      1.726929     1.005597     1.482496
H      1.567687     1.371168    -0.237797
14
Iteration 45, Energy=-157.1538726282, |grad|=0.005181
C     -2.995186     0.920217     0.309063
C      0.239865    -1.041254    -0.931093
C      0.390505    -0.334903     0.413023
C      1.626133     0.556967     0.490240
H     -0.496798     0.272647     0.621442
H     -3.287771    -0.142363     0.412644
H     -2.764234     1.006981    -0.769584
H      0.151832    -0.330112    -1.760004
H     -0.644305    -1.681923    -0.941296
H      0.432081    -1.087927     1.207012
H      1.108422    -1.674010    -1.133566
H      2.534603    -0.012724     0.279932
H      1.733210     1.004111     1.481371
H      1.569784     1.371200    -0.236391
14
Iteration 46, Energy=-157.1538969210, |grad|=0.009175
C     -3.003601     0.920092     0.306688
C      0.246155    -1.040429    -0.927558
C      0.397114    -0.335974     0.416244
C      1.633995     0.553790     0.488910
H     -0.491504     0.268592     0.627854
H     -3.318507    -0.137593     0.407608
H     -2.798888     1.012429    -0.775860
H      0.163247    -0.326429    -1.752625
H     -0.641623    -1.680422    -0.943781
H      0.439296    -1.089734     1.211537
H      1.111856    -1.675856    -1.129580
H      2.541642    -0.013291     0.269317
H      1.746835     1.000496     1.479628
H      1.572124     1.371236    -0.235590
14
Iteration 47, Energy=-157.1539194373, |grad|=0.004570
C     -3.008820     0.919248     0.305491
C      0.248830    -1.041877    -0.925194
C      0.401224    -0.338324     0.420073
C      1.638367     0.553472     0.487766
H     -0.487857     0.266137     0.631613
H     -3.337645    -0.133991     0.404444
H     -2.820824     1.015881    -0.780237
H      0.170332    -0.322764    -1.747160
H     -0.639143    -1.678477    -0.946228
H      0.444031    -1.089850     1.214348
H      1.114076    -1.677211    -1.127888
H      2.546808    -0.014118     0.263144
H      1.754968     0.998367     1.478185
H      1.573796     1.370411    -0.235565
14
Iteration 48, Energy=-157.1539301344, |grad|=0.002925
C     -3.010698     0.918552     0.305246
C      0.249925    -1.042472    -0.924701
C      0.402358    -0.339231     0.421246
C      1.639580     0.553436     0.487463
H     -0.486379     0.265932     0.631911
H     -3.341996    -0.132533     0.403703
H     -2.826122     1.016676    -0.781406
H      0.171634    -0.321377    -1.743570
H     -0.639108    -1.677530    -0.947837
H      0.445746    -1.089612     1.215927
H      1.115208    -1.678359    -1.129020
H      2.547606    -0.014348     0.262759
H      1.756799     0.997940     1.477945
H      1.573589     1.369831    -0.236873
14
Iteration 49, Energy=-157.1539386169, |grad|=0.002965
C     -3.013040     0.918506     0.304809
C      0.251501    -1.043282    -0.924073
C      0.404523    -0.340285     0.422330
C      1.640315     0.553552     0.487147
H     -0.484033     0.266401     0.632805
H     -3.348107    -0.131427     0.402782
H     -2.833331     1.017709    -0.783045
H      0.173074    -0.319745    -1.739848
H     -0.639221    -1.676401    -0.949919
H      0.449016    -1.089764     1.217987
H      1.116372    -1.679952    -1.130357
H      2.548327    -0.014945     0.262931
H      1.759214     0.997401     1.477555
H      1.573531     1.369139    -0.238312
14
Iteration 50, Energy=-157.1539440126, |grad|=0.003793
C     -3.014530     0.918447     0.303968
C      0.252312    -1.043709    -0.924014
C      0.405445    -0.341113     0.423666
C      1.641450     0.553118     0.486762
H     -0.481094     0.266606     0.634023
H     -3.352743    -0.130667     0.402197
H     -2.839113     1.018438    -0.784160
H      0.173848    -0.318455    -1.738059
H     -0.639402    -1.675560    -0.951608
H      0.453063    -1.089856     1.219504
H      1.116439    -1.681201    -1.131511
H      2.548269    -0.015272     0.264425
H      1.760076     0.997624     1.477127
H      1.574124     1.368506    -0.239528
14
Iteration 51, Energy=-157.1539495633, |grad|=0.002266
C     -3.015855     0.918225     0.303458
C      0.252492    -1.043430    -0.923563
C      0.406946    -0.341708     0.423693
C      1.641863     0.552911     0.486675
H     -0.479159     0.266710     0.635614
H     -3.356773    -0.129884     0.401675
H     -2.844117     1.019122    -0.785352
H      0.174725    -0.317778    -1.738014
H     -0.639259    -1.675077    -0.952329
H      0.456415    -1.090412     1.220554
H      1.116171    -1.681903    -1.131739
H      2.548825    -0.015781     0.265188
H      1.760804     0.997920     1.476724
H      1.575063     1.367992    -0.239791
14
Iteration 52, Energy=-157.1539548201, |grad|=0.002461
C     -3.018540     0.918325     0.302481
C      0.253242    -1.042843    -0.923301
C      0.409208    -0.342347     0.424266
C      1.643253     0.552493     0.486534
H     -0.476580     0.266154     0.637975
H     -3.363751    -0.128805     0.400744
H     -2.852427     1.020297    -0.787038
H      0.176572    -0.317423    -1.738804
H     -0.638686    -1.674096    -0.952062
H      0.460811    -1.091418     1.221288
H      1.115742    -1.682414    -1.131336
H      2.550206    -0.016393     0.265092
H      1.762598     0.998086     1.476533
H      1.576493     1.367290    -0.239579
14
Iteration 53, Energy=-157.1539619412, |grad|=0.003854
C     -3.022902     0.918432     0.300757
C      0.254078    -1.042175    -0.922708
C      0.412476    -0.343055     0.424966
C      1.646003     0.552003     0.487170
H     -0.473049     0.264609     0.641257
H     -3.372955    -0.127158     0.399628
H     -2.863737     1.021793    -0.789216
H      0.178761    -0.316822    -1.739480
H     -0.638259    -1.672187    -0.951370
H      0.467062    -1.092724     1.221817
H      1.115030    -1.683241    -1.131809
H      2.552907    -0.017313     0.265823
H      1.764107     0.998821     1.476122
H      1.578619     1.365922    -0.240165
14
Iteration 54, Energy=-157.1539735899, |grad|=0.004340
C     -3.032193     0.918737     0.297745
C      0.256420    -1.040581    -0.921989
C      0.419269    -0.344574     0.426900
C      1.651671     0.551038     0.486931
H     -0.466572     0.261038     0.647676
H     -3.391146    -0.123830     0.397418
H     -2.886116     1.024737    -0.793971
H      0.183020    -0.315775    -1.739602
H     -0.637977    -1.668287    -0.949616
H      0.478707    -1.095249     1.222186
H      1.113849    -1.684929    -1.133159
H      2.558975    -0.018873     0.267471
H      1.767202     1.000738     1.476111
H      1.583031     1.362716    -0.241309
14
Iteration 55, Energy=-157.1539891487, |grad|=0.004182
C     -3.043530     0.919578     0.294172
C      0.258903    -1.039943    -0.921659
C      0.426759    -0.346198     0.428633
C      1.658385     0.550257     0.488176
H     -0.459688     0.256319     0.654632
H     -3.410010    -0.120377     0.395286
H     -2.909801     1.027586    -0.799065
H      0.186631    -0.314204    -1.738130
H     -0.638314    -1.662951    -0.946953
H      0.490979    -1.098642     1.221636
H      1.112680    -1.687053    -1.136137
H      2.566723    -0.019943     0.271212
H      1.769757     1.003389     1.475241
H      1.588668     1.359088    -0.244251
14
Iteration 56, Energy=-157.1540094797, |grad|=0.004216
C     -3.060784     0.920965     0.288572
C      0.262511    -1.038973    -0.919998
C      0.437064    -0.349407     0.430892
C      1.668404     0.549634     0.488457
H     -0.450553     0.248749     0.663918
H     -3.435731    -0.115283     0.392412
H     -2.942610     1.031258    -0.805672
H      0.190873    -0.311092    -1.734309
H     -0.639697    -1.655097    -0.942623
H      0.506556    -1.104129     1.219618
H      1.112223    -1.690825    -1.141539
H      2.578580    -0.020182     0.277759
H      1.773634     1.007798     1.474307
H      1.597672     1.353488    -0.249002
14
Iteration 57, Energy=-157.1540210602, |grad|=0.007290
C     -3.080813     0.922534     0.283501
C      0.266973    -1.038949    -0.919727
C      0.448867    -0.351976     0.433915
C      1.677520     0.547802     0.488589
H     -0.439926     0.240106     0.673697
H     -3.463886    -0.109442     0.389179
H     -2.978708     1.035170    -0.814132
H      0.194770    -0.306703    -1.728636
H     -0.641178    -1.647190    -0.937799
H      0.522502    -1.112456     1.217410
H      1.111022    -1.694591    -1.146650
H      2.591988    -0.018689     0.285982
H      1.779281     1.012972     1.471975
H      1.609729     1.348317    -0.254511
14
Iteration 58, Energy=-157.1540329043, |grad|=0.003367
C     -3.080998     0.923251     0.283096
C      0.266509    -1.038638    -0.919570
C      0.448317    -0.353411     0.433453
C      1.677532     0.548574     0.488471
H     -0.440455     0.240355     0.672978
H     -3.462449    -0.110038     0.389454
H     -2.977028     1.034721    -0.813380
H      0.193738    -0.306286    -1.727697
H     -0.641337    -1.647654    -0.937635
H      0.520923    -1.113248     1.216772
H      1.111440    -1.694818    -1.146749
H      2.591722    -0.017552     0.286924
H      1.779598     1.013146     1.471296
H      1.610631     1.348503    -0.254619
14
Iteration 59, Energy=-157.1540374480, |grad|=0.001928
C     -3.081978     0.923722     0.282788
C      0.266241    -1.038707    -0.919205
C      0.448252    -0.354059     0.433209
C      1.677549     0.548699     0.488150
H     -0.440151     0.240289     0.672667
H     -3.462505    -0.110132     0.389493
H     -2.977196     1.034561    -0.813313
H      0.193075    -0.305545    -1.727337
H     -0.641139    -1.648094    -0.937500
H      0.520312    -1.114577     1.216477
H      1.111445    -1.694862    -1.146552
H      2.591935    -0.016625     0.287663
H      1.780413     1.013572     1.470852
H      1.611892     1.348664    -0.254599
14
Iteration 60, Energy=-157.1540403574, |grad|=0.001664
C     -3.086157     0.924346     0.281645
C      0.266602    -1.038330    -0.918891
C      0.450278    -0.355180     0.433777
C      1.679014     0.548433     0.488196
H     -0.437769     0.239356     0.673933
H     -3.467546    -0.109201     0.388955
H     -2.983632     1.035148    -0.814717
H      0.193196    -0.304280    -1.726538
H     -0.640833    -1.647813    -0.937141
H      0.522977    -1.116857     1.216325
H      1.111030    -1.695325    -1.146890
H      2.594135    -0.016194     0.289173
H      1.782233     1.014796     1.470192
H      1.614613     1.348004    -0.255225
14
Iteration 61, Energy=-157.1540429966, |grad|=0.002884
C     -3.092397     0.925428     0.279830
C      0.267072    -1.038407    -0.918469
C      0.452916    -0.355912     0.434459
C      1.681962     0.548035     0.488379
H     -0.434754     0.238158     0.675354
H     -3.473583    -0.108078     0.388454
H     -2.991451     1.035760    -0.816298
H      0.192829    -0.302679    -1.725462
H     -0.640017    -1.647682    -0.936796
H      0.526351    -1.119444     1.216207
H      1.110241    -1.695205    -1.147839
H      2.597266    -0.016267     0.291037
H      1.784191     1.016822     1.469856
H      1.617517     1.346377    -0.255920
14
Iteration 62, Energy=-157.1540455495, |grad|=0.001804
C     -3.096999     0.926088     0.278777
C      0.267457    -1.037782    -0.918241
C      0.455194    -0.356656     0.435142
C      1.683822     0.547581     0.488897
H     -0.432498     0.237388     0.676705
H     -3.478429    -0.107132     0.388007
H     -2.997659     1.036325    -0.817847
H      0.192824    -0.301855    -1.724725
H     -0.639567    -1.647535    -0.936528
H      0.529275    -1.120758     1.216143
H      1.109996    -1.695299    -1.148705
H      2.599749    -0.016734     0.292176
H      1.785551     1.018084     1.469551
H      1.619425     1.345190    -0.256560
14
Iteration 63, Energy=-157.1540484205, |grad|=0.001583
C     -3.101732     0.927125     0.277845
C      0.267802    -1.037240    -0.918191
C      0.456689    -0.357109     0.435928
C      1.685600     0.546954     0.489597
H     -0.430610     0.237242     0.677392
H     -3.481348    -0.106606     0.387892
H     -3.001530     1.036452    -0.818958
H      0.191814    -0.301202    -1.723939
H     -0.638804    -1.648304    -0.936485
H      0.531057    -1.121311     1.216097
H      1.110066    -1.694592    -1.149874
H      2.601822    -0.017559     0.293110
H      1.786645     1.019253     1.469368
H      1.620670     1.343802    -0.256989
14
Iteration 64, Energy=-157.1540514810, |grad|=0.002218
C     -3.106880     0.928500     0.277026
C      0.267940    -1.036961    -0.918102
C      0.458074    -0.357246     0.436279
C      1.687233     0.546220     0.490188
H     -0.429186     0.237626     0.678018
H     -3.483126    -0.106320     0.387973
H     -3.004053     1.036252    -0.819913
H      0.190095    -0.300664    -1.723120
H     -0.637674    -1.649331    -0.936313
H      0.532136    -1.121363     1.216286
H      1.110796    -1.693262    -1.151567
H      2.603666    -0.018716     0.294063
H      1.787559     1.020142     1.469305
H      1.621563     1.342029    -0.257330
14
Iteration 65, Energy=-157.1540568384, |grad|=0.003560
C     -3.116482     0.931627     0.275728
C      0.268723    -1.036410    -0.918158
C      0.458637    -0.357496     0.436948
C      1.689427     0.544600     0.490863
H     -0.426915     0.239349     0.678253
H     -3.483378    -0.106355     0.388515
H     -3.005080     1.035059    -0.820892
H      0.185278    -0.299647    -1.721707
H     -0.635280    -1.652786    -0.935782
H      0.531870    -1.120960     1.216946
H      1.113060    -1.689361    -1.154784
H      2.605678    -0.020668     0.295819
H      1.789389     1.020768     1.468887
H      1.623215     1.339186    -0.257844
14
Iteration 66, Energy=-157.1540628842, |grad|=0.002865
C     -3.126161     0.934748     0.274141
C      0.268859    -1.036507    -0.918120
C      0.459993    -0.357676     0.437481
C      1.691139     0.543187     0.491072
H     -0.424927     0.240738     0.679102
H     -3.484332    -0.106239     0.388914
H     -3.007016     1.033893    -0.821807
H      0.180876    -0.298504    -1.720357
H     -0.632486    -1.655073    -0.934425
H      0.531780    -1.120725     1.217698
H      1.116011    -1.685440    -1.158248
H      2.607669    -0.022578     0.297826
H      1.791183     1.020639     1.468346
H      1.625555     1.336444    -0.258830
14
Iteration 67, Energy=-157.1540681920, |grad|=0.002187
C     -3.135584     0.937503     0.272732
C      0.269837    -1.036118    -0.917761
C      0.461177    -0.357721     0.437167
C      1.692774     0.541913     0.490547
H     -0.423173     0.241743     0.680293
H     -3.485658    -0.105811     0.389178
H     -3.009435     1.032771    -0.822941
H      0.176877    -0.297449    -1.719127
H     -0.630012    -1.657168    -0.932302
H      0.531802    -1.120943     1.218991
H      1.119096    -1.681112    -1.161475
H      2.608946    -0.024436     0.299787
H      1.792906     1.019633     1.467875
H      1.628589     1.334101    -0.260172
14
Iteration 68, Energy=-157.1540713438, |grad|=0.001652
C     -3.139875     0.938742     0.271753
C      0.270172    -1.035941    -0.917588
C      0.461692    -0.358105     0.437697
C      1.693480     0.541602     0.490031
H     -0.422111     0.241544     0.680901
H     -3.487308    -0.105512     0.389177
H     -3.011758     1.032382    -0.823510
H      0.175474    -0.296693    -1.718700
H     -0.628585    -1.657763    -0.930659
H      0.532239    -1.121334     1.219272
H      1.120471    -1.678915    -1.162511
H      2.609297    -0.025284     0.300645
H      1.793848     1.018628     1.467478
H      1.631105     1.333554    -0.261193
14
Iteration 69, Energy=-157.1540739346, |grad|=0.001636
C     -3.143094     0.939412     0.270760
C      0.270590    -1.035277    -0.917256
C      0.462660    -0.358108     0.437963
C      1.694412     0.541317     0.489825
H     -0.421254     0.240739     0.681601
H     -3.490100    -0.105022     0.389038
H     -3.015290     1.032408    -0.824285
H      0.175036    -0.296088    -1.718350
H     -0.627559    -1.658072    -0.929145
H      0.533753    -1.121854     1.219397
H      1.121182    -1.677301    -1.162903
H      2.609693    -0.026450     0.300924
H      1.794538     1.017931     1.467362
H      1.633575     1.333270    -0.262139
14
Iteration 70, Energy=-157.1540758951, |grad|=0.003311
C     -3.152127     0.940849     0.268851
C      0.271579    -1.033798    -0.916455
C      0.465377    -0.358684     0.438891
C      1.697596     0.541060     0.489108
H     -0.419137     0.239065     0.683441
H     -3.497699    -0.103379     0.388649
H     -3.024929     1.032600    -0.827238
H      0.173443    -0.294274    -1.717119
H     -0.624839    -1.659200    -0.925838
H      0.538140    -1.122941     1.218998
H      1.122826    -1.673481    -1.163916
H      2.611374    -0.029720     0.301696
H      1.796738     1.017242     1.467274
H      1.639800     1.331568    -0.263547
14
Iteration 71, Energy=-157.1540786075, |grad|=0.001376
C     -3.154807     0.941595     0.267991
C      0.271753    -1.033436    -0.916383
C      0.466031    -0.358162     0.438889
C      1.698623     0.540286     0.489835
H     -0.418568     0.238871     0.683881
H     -3.499602    -0.103195     0.388657
H     -3.027306     1.032538    -0.827766
H      0.172496    -0.293872    -1.716511
H     -0.624003    -1.659887    -0.925284
H      0.539366    -1.123006     1.218870
H      1.123512    -1.672430    -1.164435
H      2.612065    -0.030866     0.301826
H      1.797483     1.017411     1.467131
H      1.641098     1.331059    -0.263909
14
Iteration 72, Energy=-157.1540797230, |grad|=0.001193
C     -3.156655     0.941978     0.267427
C      0.271922    -1.033272    -0.916344
C      0.466552    -0.357945     0.438935
C      1.699366     0.539884     0.490140
H     -0.418227     0.238892     0.684254
H     -3.501055    -0.102952     0.388640
H     -3.029134     1.032531    -0.828216
H      0.171728    -0.293572    -1.716018
H     -0.623491    -1.660391    -0.925120
H      0.540308    -1.122988     1.218580
H      1.123961    -1.671900    -1.164780
H      2.612738    -0.031674     0.301963
H      1.798209     1.017840     1.467127
H      1.641920     1.330475    -0.263795
14
Iteration 73, Energy=-157.1540812555, |grad|=0.001290
C     -3.160807     0.942566     0.266224
C      0.272427    -1.033016    -0.916055
C      0.467535    -0.357638     0.439080
C      1.701199     0.539233     0.490490
H     -0.417395     0.238704     0.685363
H     -3.505096    -0.102088     0.388468
H     -3.034173     1.032552    -0.829584
H      0.170035    -0.292788    -1.715041
H     -0.622084    -1.661252    -0.924273
H      0.542608    -1.123125     1.217916
H      1.125269    -1.670408    -1.165391
H      2.613820    -0.033512     0.302354
H      1.800253     1.018171     1.466924
H      1.644552     1.329505    -0.263683
14
Iteration 74, Energy=-157.1540815736, |grad|=0.003125
C     -3.165988     0.943610     0.264321
C      0.273505    -1.032218    -0.916000
C      0.469158    -0.357262     0.439564
C      1.702923     0.538421     0.490217
H     -0.416341     0.238746     0.687153
H     -3.511401    -0.101128     0.388171
H     -3.041779     1.032439    -0.831475
H      0.167329    -0.292106    -1.713603
H     -0.620109    -1.662695    -0.922888
H      0.545400    -1.123317     1.217167
H      1.127604    -1.667942    -1.166175
H      2.615098    -0.036253     0.302987
H      1.803985     1.018014     1.466774
H      1.648758     1.328596    -0.263420
14
Iteration 75, Energy=-157.1540832182, |grad|=0.001124
C     -3.164793     0.943051     0.264673
C      0.273333    -1.032524    -0.915773
C      0.468739    -0.357288     0.439446
C      1.702923     0.538684     0.490298
H     -0.416452     0.238620     0.687015
H     -3.511065    -0.100991     0.388110
H     -3.041335     1.032542    -0.831425
H      0.167822    -0.292162    -1.713999
H     -0.620291    -1.662313    -0.923067
H      0.545160    -1.123367     1.217234
H      1.127277    -1.668327    -1.165862
H      2.614700    -0.035861     0.302810
H      1.803769     1.017838     1.466729
H      1.648354     1.329004    -0.263396
14
Iteration 76, Energy=-157.1540839404, |grad|=0.000914
C     -3.164079     0.942644     0.264710
C      0.273350    -1.032585    -0.915641
C      0.468627    -0.357258     0.439477
C      1.703017     0.538837     0.490232
H     -0.416416     0.238611     0.687177
H     -3.511809    -0.100760     0.387989
H     -3.042125     1.032593    -0.831647
H      0.167861    -0.292273    -1.714194
H     -0.620175    -1.662219    -0.923041
H      0.545156    -1.123421     1.217289
H      1.127391    -1.668266    -1.165659
H      2.614429    -0.035890     0.302706
H      1.804319     1.017470     1.466709
H      1.648595     1.329424    -0.263314
14
Iteration 77, Energy=-157.1540850819, |grad|=0.001309
C     -3.163281     0.941980     0.264442
C      0.273538    -1.032503    -0.915424
C      0.468760    -0.357061     0.439671
C      1.703511     0.538959     0.490161
H     -0.416094     0.238740     0.687728
H     -3.514345    -0.100185     0.387714
H     -3.044919     1.032660    -0.832365
H      0.167488    -0.292495    -1.714397
H     -0.619643    -1.662433    -0.922894
H      0.545426    -1.123460     1.217415
H      1.127909    -1.667697    -1.165464
H      2.614242    -0.036424     0.302480
H      1.806055     1.016752     1.466777
H      1.649494     1.330073    -0.263051
14
Iteration 78, Energy=-157.1540869965, |grad|=0.001627
C     -3.162596     0.940981     0.263582
C      0.273796    -1.032131    -0.915072
C      0.469426    -0.356678     0.440194
C      1.704884     0.538847     0.490282
H     -0.415130     0.239195     0.688706
H     -3.519576    -0.099109     0.387267
H     -3.050724     1.032760    -0.833794
H      0.166585    -0.292769    -1.714576
H     -0.618389    -1.663277    -0.922525
H      0.546049    -1.123276     1.217722
H      1.128876    -1.666295    -1.165504
H      2.614600    -0.037691     0.301816
H      1.809253     1.015697     1.467148
H      1.651085     1.330651    -0.262457
14
Iteration 79, Energy=-157.1540883153, |grad|=0.002654
C     -3.162837     0.940043     0.262622
C      0.274680    -1.031694    -0.914646
C      0.470370    -0.356032     0.440390
C      1.706446     0.538352     0.490416
H     -0.413789     0.239908     0.689768
H     -3.525509    -0.097829     0.386837
H     -3.057380     1.032843    -0.835663
H      0.165374    -0.292716    -1.714448
H     -0.617025    -1.664492    -0.921742
H      0.546842    -1.123200     1.218330
H      1.129916    -1.664380    -1.165870
H      2.615529    -0.039093     0.300976
H      1.812564     1.014546     1.467553
H      1.652963     1.330652    -0.261730
14
Iteration 80, Energy=-157.1540910856, |grad|=0.001512
C     -3.163274     0.939044     0.260940
C      0.275020    -1.030924    -0.914261
C      0.471856    -0.355593     0.441265
C      1.708874     0.537601     0.490818
H     -0.411885     0.240982     0.691017
H     -3.533476    -0.096311     0.386330
H     -3.066276     1.032917    -0.837852
H      0.163786    -0.292719    -1.714188
H     -0.614845    -1.666116    -0.920721
H      0.547801    -1.122661     1.218915
H      1.131511    -1.661919    -1.166588
H      2.616988    -0.041008     0.299726
H      1.816813     1.013121     1.468198
H      1.655248     1.330490    -0.260807
14
Iteration 81, Energy=-157.1540936915, |grad|=0.001303
C     -3.164663     0.938077     0.258677
C      0.275770    -1.030146    -0.913758
C      0.473594    -0.355140     0.442172
C      1.711757     0.536269     0.491231
H     -0.409307     0.242524     0.692105
H     -3.542438    -0.094553     0.385890
H     -3.076340     1.032958    -0.840225
H      0.161853    -0.292204    -1.713379
H     -0.612319    -1.667996    -0.919053
H      0.548818    -1.121980     1.219658
H      1.133390    -1.658988    -1.167820
H      2.619271    -0.042938     0.298077
H      1.821042     1.011397     1.468923
H      1.657714     1.329627    -0.259704
14
Iteration 82, Energy=-157.1540956266, |grad|=0.002460
C     -3.166580     0.936985     0.256689
C      0.276530    -1.029296    -0.913119
C      0.475872    -0.354948     0.442733
C      1.714737     0.534693     0.491730
H     -0.406476     0.244640     0.692857
H     -3.551877    -0.092606     0.385494
H     -3.086923     1.033006    -0.843284
H      0.159794    -0.291267    -1.711784
H     -0.609581    -1.669710    -0.916794
H      0.549702    -1.121372     1.220565
H      1.135660    -1.656100    -1.169366
H      2.622116    -0.044651     0.296094
H      1.824999     1.009142     1.469476
H      1.660169     1.328389    -0.258500
14
Iteration 83, Energy=-157.1540974977, |grad|=0.001606
C     -3.167936     0.936668     0.255311
C      0.277382    -1.029212    -0.912795
C      0.476705    -0.354840     0.443182
C      1.716477     0.533600     0.491683
H     -0.404613     0.245771     0.692773
H     -3.556497    -0.091750     0.385397
H     -3.092092     1.032968    -0.844539
H      0.158680    -0.290351    -1.710507
H     -0.608276    -1.670366    -0.915277
H      0.550036    -1.121133     1.220969
H      1.136743    -1.654662    -1.170296
H      2.623720    -0.045157     0.295056
H      1.826533     1.007790     1.469763
H      1.661279     1.327580    -0.257927
14
Iteration 84, Energy=-157.1540986799, |grad|=0.001096
C     -3.168608     0.936445     0.254692
C      0.277886    -1.029324    -0.912378
C      0.477170    -0.354977     0.443179
C      1.717080     0.533209     0.491583
H     -0.403650     0.246361     0.692329
H     -3.558409    -0.091289     0.385370
H     -3.094257     1.032904    -0.845076
H      0.158193    -0.289645    -1.709557
H     -0.607807    -1.670324    -0.914376
H      0.550029    -1.121262     1.221177
H      1.137300    -1.654272    -1.170708
H      2.624496    -0.045163     0.294603
H      1.827007     1.006799     1.469748
H      1.661711     1.327442    -0.257794
14
Iteration 85, Energy=-157.1540995084, |grad|=0.001111
C     -3.169481     0.935974     0.254038
C      0.278528    -1.029269    -0.911964
C      0.478053    -0.355116     0.443433
C      1.718314     0.532769     0.491272
H     -0.402154     0.247055     0.691761
H     -3.561942    -0.090432     0.385205
H     -3.098240     1.032779    -0.846376
H      0.157384    -0.288910    -1.708158
H     -0.607030    -1.670394    -0.913188
H      0.550141    -1.121523     1.221557
H      1.138135    -1.653555    -1.171197
H      2.625381    -0.045409     0.294062
H      1.828438     1.005278     1.469925
H      1.662617     1.327658    -0.257579
14
Iteration 86, Energy=-157.1540999019, |grad|=0.000805
C     -3.169937     0.935934     0.253512
C      0.278659    -1.029321    -0.911629
C      0.478687    -0.355208     0.443476
C      1.718798     0.532865     0.491375
H     -0.401523     0.247229     0.691510
H     -3.563628    -0.090126     0.385125
H     -3.100117     1.032643    -0.846780
H      0.157014    -0.288618    -1.707729
H     -0.606684    -1.670469    -0.912853
H      0.550256    -1.121676     1.221812
H      1.138354    -1.653216    -1.171418
H      2.625836    -0.045727     0.293900
H      1.829372     1.004667     1.469997
H      1.663055     1.327930    -0.257505
14
Iteration 87, Energy=-157.1541001040, |grad|=0.000503
C     -3.170130     0.935925     0.253420
C      0.278619    -1.029228    -0.911621
C      0.478848    -0.355245     0.443553
C      1.718938     0.532908     0.491370
H     -0.401421     0.247145     0.691454
H     -3.563901    -0.090024     0.385103
H     -3.100441     1.032579    -0.846861
H      0.156972    -0.288663    -1.707702
H     -0.606685    -1.670533    -0.912893
H      0.550329    -1.121674     1.221877
H      1.138308    -1.653201    -1.171477
H      2.625881    -0.045813     0.293936
H      1.829683     1.004670     1.470102
H      1.663141     1.328060    -0.257469
14
Iteration 88, Energy=-157.1541003783, |grad|=0.000518
C     -3.170911     0.935860     0.252936
C      0.278686    -1.029065    -0.911535
C      0.479441    -0.355234     0.443809
C      1.719671     0.532805     0.491469
H     -0.400808     0.247157     0.691426
H     -3.565781    -0.089595     0.385020
H     -3.102565     1.032399    -0.847476
H      0.156623    -0.288598    -1.707468
H     -0.606356    -1.670831    -0.912694
H      0.550687    -1.121593     1.222150
H      1.138407    -1.652825    -1.171835
H      2.626364    -0.046192     0.293774
H      1.830987     1.004397     1.470385
H      1.663697     1.328221    -0.257168
14
Iteration 89, Energy=-157.1541006556, |grad|=0.000745
C     -3.171909     0.935917     0.252422
C      0.278842    -1.028981    -0.911443
C      0.479973    -0.355324     0.443933
C      1.720296     0.532700     0.491546
H     -0.400297     0.247165     0.691281
H     -3.567277    -0.089252     0.385017
H     -3.104236     1.032156    -0.847982
H      0.156386    -0.288433    -1.707112
H     -0.606226    -1.670904    -0.912429
H      0.551069    -1.121524     1.222395
H      1.138406    -1.652752    -1.172262
H      2.626893    -0.046322     0.293611
H      1.832056     1.004120     1.470591
H      1.664166     1.328340    -0.256776
14
Iteration 90, Energy=-157.1541012265, |grad|=0.000927
C     -3.174764     0.936078     0.251062
C      0.279175    -1.028967    -0.911193
C      0.481343    -0.355349     0.444331
C      1.722034     0.532262     0.491939
H     -0.398884     0.247174     0.691092
H     -3.571546    -0.088297     0.385038
H     -3.108974     1.031469    -0.849563
H      0.155788    -0.287950    -1.706295
H     -0.605754    -1.670951    -0.911658
H      0.552264    -1.121289     1.223024
H      1.138432    -1.652623    -1.173491
H      2.628433    -0.046651     0.293028
H      1.835042     1.003330     1.471114
H      1.665551     1.328668    -0.255635
14
Iteration 91, Energy=-157.1541014885, |grad|=0.001747
C     -3.178267     0.936532     0.249523
C      0.280107    -1.028843    -0.910884
C      0.482873    -0.355615     0.444589
C      1.723901     0.532090     0.492180
H     -0.397403     0.247351     0.691174
H     -3.576211    -0.087425     0.385186
H     -3.114028     1.030580    -0.851439
H      0.155328    -0.287411    -1.705357
H     -0.605593    -1.670687    -0.910587
H      0.553703    -1.121148     1.223594
H      1.138285    -1.652759    -1.174804
H      2.630270    -0.046859     0.292185
H      1.838010     1.002156     1.471658
H      1.667168     1.328943    -0.254225
14
Iteration 92, Energy=-157.1541020617, |grad|=0.000807
C     -3.178407     0.936600     0.249509
C      0.279949    -1.028973    -0.910890
C      0.482763    -0.355510     0.444506
C      1.723793     0.531961     0.492217
H     -0.397500     0.247295     0.691265
H     -3.575777    -0.087485     0.385260
H     -3.113530     1.030526    -0.851306
H      0.155524    -0.287397    -1.705424
H     -0.605666    -1.670363    -0.910567
H      0.553760    -1.121205     1.223503
H      1.138255    -1.653068    -1.174778
H      2.630193    -0.046636     0.292153
H      1.837691     1.002161     1.471608
H      1.667094     1.329000    -0.254264
14
Iteration 93, Energy=-157.1541025452, |grad|=0.000696
C     -3.179336     0.936817     0.249253
C      0.279975    -1.029087    -0.910860
C      0.482909    -0.355424     0.444468
C      1.723942     0.531873     0.492284
H     -0.397346     0.247247     0.691615
H     -3.576034    -0.087421     0.385411
H     -3.113744     1.030241    -0.851557
H      0.155818    -0.287351    -1.705463
H     -0.605809    -1.669764    -0.910324
H      0.554170    -1.121298     1.223384
H      1.138122    -1.653559    -1.174881
H      2.630428    -0.046402     0.291881
H      1.837708     1.001863     1.471657
H      1.667337     1.329169    -0.254076
14
Iteration 94, Energy=-157.1541031402, |grad|=0.001078
C     -3.181526     0.937207     0.248464
C      0.280212    -1.029060    -0.910721
C      0.483615    -0.355361     0.444537
C      1.724704     0.531741     0.492386
H     -0.396591     0.247227     0.692273
H     -3.577823    -0.087045     0.385622
H     -3.115613     1.029598    -0.852446
H      0.156129    -0.287228    -1.705367
H     -0.605920    -1.668949    -0.909716
H      0.555135    -1.121438     1.223316
H      1.137926    -1.654103    -1.175214
H      2.631192    -0.046291     0.291254
H      1.838558     1.001074     1.471953
H      1.668144     1.329533    -0.253547
14
Iteration 95, Energy=-157.1541044754, |grad|=0.001550
C     -3.187635     0.938138     0.246023
C      0.280909    -1.028743    -0.910293
C      0.485889    -0.355270     0.444893
C      1.727239     0.531412     0.492584
H     -0.393991     0.247218     0.693986
H     -3.583868    -0.085730     0.386058
H     -3.122075     1.027798    -0.855102
H      0.156712    -0.286849    -1.705002
H     -0.606000    -1.667228    -0.908025
H      0.557867    -1.121805     1.223243
H      1.137470    -1.654934    -1.176025
H      2.633437    -0.046417     0.289544
H      1.841649     0.998800     1.472941
H      1.670539     1.330516    -0.252032
14
Iteration 96, Energy=-157.1541059622, |grad|=0.002830
C     -3.200560     0.939897     0.240926
C      0.282067    -1.027370    -0.909312
C      0.491314    -0.355292     0.445477
C      1.732924     0.530291     0.493198
H     -0.388031     0.247600     0.697523
H     -3.598158    -0.082595     0.386755
H     -3.137496     1.023983    -0.861383
H      0.157640    -0.285864    -1.703945
H     -0.605923    -1.664462    -0.904534
H      0.563959    -1.122608     1.223182
H      1.136985    -1.655798    -1.177297
H      2.638484    -0.047229     0.285968
H      1.849318     0.994019     1.474895
H      1.675618     1.332333    -0.248661
14
Iteration 97, Energy=-157.1541080186, |grad|=0.001318
C     -3.209609     0.941115     0.236919
C      0.283092    -1.026668    -0.908733
C      0.494776    -0.355176     0.446419
C      1.737206     0.529732     0.493166
H     -0.383408     0.247711     0.700127
H     -3.608419    -0.080309     0.387209
H     -3.148613     1.021229    -0.865468
H      0.158342    -0.285124    -1.703430
H     -0.605834    -1.662532    -0.902171
H      0.568312    -1.123267     1.222912
H      1.136421    -1.656002    -1.177793
H      2.641915    -0.047992     0.283491
H      1.854799     0.990619     1.476455
H      1.679162     1.333569    -0.246310
14
Iteration 98, Energy=-157.1541093194, |grad|=0.000840
C     -3.214564     0.941555     0.234408
C      0.283582    -1.025975    -0.908232
C      0.497101    -0.355218     0.446998
C      1.739993     0.529377     0.493314
H     -0.380419     0.247997     0.701480
H     -3.615533    -0.078681     0.387259
H     -3.156454     1.019694    -0.868014
H      0.158364    -0.284539    -1.702985
H     -0.605459    -1.662149    -0.901045
H      0.570901    -1.123725     1.222925
H      1.136371    -1.655251    -1.177776
H      2.644076    -0.049020     0.282173
H      1.858972     0.988705     1.477236
H      1.681211     1.334135    -0.244951
14
Iteration 99, Energy=-157.1541102739, |grad|=0.001297
C     -3.219647     0.941907     0.231933
C      0.284075    -1.025054    -0.907705
C      0.499375    -0.355237     0.447645
C      1.742935     0.528649     0.493277
H     -0.377418     0.248490     0.703055
H     -3.623126    -0.076907     0.387304
H     -3.164816     1.018083    -0.870907
H      0.158440    -0.283795    -1.702309
H     -0.605074    -1.661717    -0.900108
H      0.573759    -1.124410     1.222834
H      1.136575    -1.654408    -1.177399
H      2.646276    -0.050063     0.280833
H      1.863600     0.986853     1.477866
H      1.683187     1.334514    -0.243528
14
Iteration 100, Energy=-157.1541110183, |grad|=0.001335
C     -3.224029     0.942251     0.229631
C      0.284510    -1.024423    -0.907153
C      0.501314    -0.355328     0.448261
C      1.745217     0.528147     0.493532
H     -0.374998     0.248968     0.704504
H     -3.629707    -0.075436     0.387411
H     -3.172010     1.016669    -0.873331
H      0.158572    -0.282964    -1.701585
H     -0.604703    -1.661099    -0.899434
H      0.576230    -1.125048     1.222711
H      1.136831    -1.653805    -1.177046
H      2.648364    -0.050998     0.279565
H      1.867700     0.985235     1.478085
H      1.684852     1.334736    -0.242360
14
Iteration 101, Energy=-157.1541118665, |grad|=0.001159
C     -3.227702     0.942489     0.227749
C      0.284975    -1.023879    -0.906638
C      0.502670    -0.355317     0.448764
C      1.747077     0.527473     0.493581
H     -0.373208     0.249336     0.705962
H     -3.634887    -0.074219     0.387598
H     -3.177629     1.015454    -0.875362
H      0.158948    -0.282132    -1.700825
H     -0.604520    -1.660206    -0.899046
H      0.578301    -1.125773     1.222556
H      1.137118    -1.653574    -1.176594
H      2.649933    -0.051550     0.278423
H      1.870981     0.984014     1.478149
H      1.686086     1.334790    -0.241525
14
Iteration 102, Energy=-157.1541131051, |grad|=0.001941
C     -3.237413     0.943031     0.222841
C      0.286039    -1.022532    -0.905406
C      0.506466    -0.355359     0.450755
C      1.751959     0.525876     0.493559
H     -0.368442     0.249992     0.710105
H     -3.649006    -0.070962     0.388183
H     -3.192865     1.012222    -0.881148
H      0.160294    -0.279701    -1.698459
H     -0.603701    -1.657382    -0.898053
H      0.583456    -1.127571     1.222311
H      1.138012    -1.653003    -1.175645
H      2.654079    -0.053168     0.274988
H      1.879786     0.980808     1.478390
H      1.689478     1.334656    -0.239629
14
Iteration 103, Energy=-157.1541144849, |grad|=0.001421
C     -3.242239     0.943312     0.220176
C      0.287172    -1.021809    -0.904497
C      0.508154    -0.355318     0.451456
C      1.754416     0.525003     0.493711
H     -0.366194     0.250021     0.712443
H     -3.655832    -0.069411     0.388600
H     -3.200155     1.010584    -0.883844
H      0.161302    -0.278288    -1.697202
H     -0.603541    -1.655694    -0.897517
H      0.585794    -1.128528     1.222536
H      1.138290    -1.652943    -1.175468
H      2.655926    -0.053808     0.272988
H      1.883865     0.979231     1.478452
H      1.691185     1.334555    -0.239041
14
Iteration 104, Energy=-157.1541159163, |grad|=0.001514
C     -3.245592     0.943345     0.218124
C      0.288054    -1.021170    -0.903811
C      0.509525    -0.355442     0.452287
C      1.756183     0.524458     0.493671
H     -0.364594     0.249773     0.714385
H     -3.661052    -0.068181     0.388941
H     -3.205721     1.009388    -0.885879
H      0.162384    -0.277024    -1.696020
H     -0.603271    -1.654241    -0.897162
H      0.587182    -1.129126     1.222997
H      1.138568    -1.652834    -1.175562
H      2.657118    -0.054418     0.271219
H      1.886885     0.978182     1.478523
H      1.692474     1.334195    -0.238921
14
Iteration 105, Energy=-157.1541193269, |grad|=0.002361
C     -3.262653     0.943855     0.208513
C      0.291553    -1.018074    -0.901050
C      0.517032    -0.355921     0.456241
C      1.765411     0.521819     0.493844
H     -0.355401     0.248974     0.722774
H     -3.688083    -0.061892     0.390087
H     -3.234837     1.003318    -0.896591
H      0.166796    -0.271381    -1.690960
H     -0.601714    -1.648579    -0.894622
H      0.595101    -1.131638     1.225203
H      1.139545    -1.651226    -1.176013
H      2.663682    -0.058039     0.263302
H      1.902545     0.972517     1.479214
H      1.699166     1.333175    -0.237148
14
Iteration 106, Energy=-157.1541208961, |grad|=0.001717
C     -3.271194     0.943756     0.203081
C      0.293102    -1.016140    -0.899318
C      0.521114    -0.356748     0.458373
C      1.770159     0.520311     0.493547
H     -0.350901     0.248765     0.727153
H     -3.702319    -0.058298     0.390579
H     -3.250311     1.000106    -0.901746
H      0.169358    -0.268082    -1.688148
H     -0.600838    -1.645606    -0.893450
H      0.599381    -1.132819     1.226499
H      1.140342    -1.650287    -1.176274
H      2.666911    -0.060104     0.259297
H      1.910911     0.969818     1.479340
H      1.702426     1.332233    -0.236142
14
Iteration 107, Energy=-157.1541221395, |grad|=0.000977
C     -3.279090     0.943883     0.198634
C      0.294295    -1.014740    -0.898268
C      0.524882    -0.356985     0.460159
C      1.774539     0.519116     0.493681
H     -0.346251     0.248685     0.730404
H     -3.715170    -0.055115     0.390831
H     -3.264378     0.997259    -0.906610
H      0.170990    -0.265693    -1.686083
H     -0.600034    -1.643618    -0.891996
H      0.603594    -1.133755     1.227503
H      1.140668    -1.649103    -1.176543
H      2.670176    -0.062095     0.256160
H      1.918382     0.967058     1.479694
H      1.705537     1.332009    -0.234773
14
Iteration 108, Energy=-157.1541231692, |grad|=0.000844
C     -3.284905     0.943835     0.195238
C      0.295103    -1.013701    -0.897453
C      0.527851    -0.357293     0.461491
C      1.777949     0.518116     0.493780
H     -0.342563     0.248762     0.732489
H     -3.725212    -0.052499     0.390878
H     -3.275479     0.995016    -0.910313
H      0.172207    -0.263776    -1.684471
H     -0.599479    -1.642203    -0.890696
H      0.607326    -1.134249     1.228434
H      1.140790    -1.648081    -1.177064
H      2.672680    -0.063805     0.254152
H      1.924056     0.964914     1.479793
H      1.707818     1.331870    -0.233466
14
Iteration 109, Energy=-157.1541238392, |grad|=0.001220
C     -3.290303     0.943796     0.191757
C      0.296009    -1.012672    -0.896580
C      0.530803    -0.357452     0.462690
C      1.781055     0.516924     0.493732
H     -0.339121     0.248870     0.734542
H     -3.735153    -0.050063     0.391040
H     -3.286345     0.992813    -0.913931
H      0.173474    -0.261751    -1.682545
H     -0.599080    -1.640462    -0.889458
H      0.611230    -1.134796     1.229478
H      1.140939    -1.647407    -1.177836
H      2.675195    -0.065474     0.252293
H      1.929450     0.962920     1.479905
H      1.709988     1.331659    -0.232295
14
Iteration 110, Energy=-157.1541245261, |grad|=0.000899
C     -3.292734     0.943320     0.189840
C      0.296626    -1.012284    -0.896004
C      0.532270    -0.357818     0.463420
C      1.782930     0.516328     0.493793
H     -0.337287     0.248922     0.735385
H     -3.740625    -0.048470     0.391109
H     -3.292402     0.991635    -0.915904
H      0.174212    -0.260352    -1.681203
H     -0.598990    -1.639215    -0.888676
H      0.613754    -1.134797     1.230216
H      1.140861    -1.647199    -1.178789
H      2.676438    -0.066454     0.251623
H      1.932023     0.961870     1.479717
H      1.711066     1.331421    -0.231735
14
Iteration 111, Energy=-157.1541250446, |grad|=0.000702
C     -3.293995     0.943048     0.188703
C      0.297113    -1.012057    -0.895650
C      0.533120    -0.357908     0.463721
C      1.783876     0.516021     0.493754
H     -0.336398     0.248950     0.736018
H     -3.743620    -0.047712     0.391319
H     -3.295591     0.991039    -0.917067
H      0.174484    -0.259588    -1.680289
H     -0.599103    -1.638280    -0.888389
H      0.615122    -1.134990     1.230426
H      1.140814    -1.647412    -1.179213
H      2.677241    -0.066798     0.251261
H      1.933320     0.961350     1.479761
H      1.711757     1.331244    -0.231563
14
Iteration 112, Energy=-157.1541257753, |grad|=0.001309
C     -3.295750     0.942218     0.186296
C      0.297700    -1.011715    -0.894987
C      0.534928    -0.358019     0.464246
C      1.785813     0.515533     0.493916
H     -0.334461     0.248660     0.737061
H     -3.749466    -0.046229     0.391808
H     -3.301770     0.990018    -0.919151
H      0.174769    -0.258085    -1.678475
H     -0.599304    -1.636329    -0.887753
H      0.617650    -1.135301     1.230853
H      1.140510    -1.648045    -1.180345
H      2.678807    -0.067266     0.250838
H      1.935351     0.960491     1.480064
H      1.713365     1.330977    -0.231577
14
Iteration 113, Energy=-157.1541264721, |grad|=0.001084
C     -3.298218     0.941610     0.184086
C      0.298520    -1.011135    -0.894454
C      0.536896    -0.358276     0.464786
C      1.787854     0.515228     0.493909
H     -0.332284     0.248518     0.738317
H     -3.755618    -0.044643     0.392161
H     -3.308387     0.988874    -0.921547
H      0.174934    -0.256843    -1.677112
H     -0.599531    -1.634949    -0.887007
H      0.620036    -1.135743     1.231075
H      1.140111    -1.648204    -1.180986
H      2.680650    -0.067786     0.250192
H      1.937957     0.959484     1.480533
H      1.715222     1.330771    -0.231161
14
Iteration 114, Energy=-157.1541272557, |grad|=0.001102
C     -3.300644     0.940956     0.181877
C      0.298943    -1.010564    -0.894027
C      0.538967    -0.358497     0.465327
C      1.789991     0.514936     0.494059
H     -0.329945     0.248304     0.739566
H     -3.761815    -0.042981     0.392430
H     -3.315126     0.987732    -0.923881
H      0.174991    -0.255731    -1.676031
H     -0.599588    -1.633763    -0.886147
H      0.622265    -1.136232     1.231252
H      1.139680    -1.648208    -1.181563
H      2.682574    -0.068222     0.249602
H      1.940585     0.958498     1.481029
H      1.717262     1.330678    -0.230701
14
Iteration 115, Energy=-157.1541293610, |grad|=0.001845
C     -3.312097     0.938620     0.171927
C      0.300803    -1.007869    -0.892099
C      0.547462    -0.359326     0.467931
C      1.799501     0.513122     0.494719
H     -0.319740     0.247515     0.745585
H     -3.789058    -0.035728     0.393392
H     -3.344842     0.982465    -0.933732
H      0.175853    -0.250893    -1.671799
H     -0.599512    -1.628906    -0.882324
H      0.631777    -1.138617     1.232146
H      1.138215    -1.647585    -1.183669
H      2.690909    -0.070273     0.246455
H      1.952912     0.954108     1.482636
H      1.725958     1.330274    -0.228375
14
Iteration 116, Energy=-157.1541301701, |grad|=0.003656
C     -3.319644     0.934468     0.163227
C      0.301486    -1.005800    -0.890780
C      0.555396    -0.360052     0.469621
C      1.807274     0.511678     0.495576
H     -0.311044     0.247024     0.750867
H     -3.812591    -0.028321     0.394206
H     -3.370887     0.978180    -0.942197
H      0.175441    -0.247101    -1.668493
H     -0.600046    -1.624129    -0.878275
H      0.640577    -1.141166     1.231973
H      1.135993    -1.647861    -1.186425
H      2.699562    -0.071088     0.245758
H      1.961982     0.951119     1.483896
H      1.734644     1.329954    -0.226162
14
Iteration 117, Energy=-157.1541325083, |grad|=0.002209
C     -3.327657     0.933833     0.157131
C      0.302872    -1.004057    -0.889382
C      0.559813    -0.360512     0.471518
C      1.813159     0.510044     0.495736
H     -0.305222     0.246845     0.754894
H     -3.828866    -0.024205     0.394667
H     -3.388605     0.974782    -0.947884
H      0.176900    -0.244106    -1.665986
H     -0.599606    -1.621255    -0.876093
H      0.646241    -1.142514     1.232804
H      1.135835    -1.646950    -1.187457
H      2.703989    -0.072853     0.243099
H      1.970247     0.948242     1.484285
H      1.739041     1.329611    -0.224540
14
Iteration 118, Energy=-157.1541338646, |grad|=0.001928
C     -3.327466     0.934072     0.157177
C      0.302801    -1.003966    -0.889435
C      0.558451    -0.360361     0.471488
C      1.813044     0.509694     0.495642
H     -0.305904     0.247064     0.755475
H     -3.827129    -0.024503     0.394478
H     -3.386808     0.974982    -0.946641
H      0.177271    -0.244781    -1.667093
H     -0.599412    -1.621852    -0.876067
H      0.645197    -1.142792     1.232327
H      1.136223    -1.646300    -1.186917
H      2.703458    -0.072627     0.243081
H      1.970020     0.948651     1.483644
H      1.738396     1.329624    -0.224366
14
Iteration 119, Energy=-157.1541354116, |grad|=0.001847
C     -3.338785     0.931387     0.147072
C      0.304657    -1.001307    -0.887279
C      0.566553    -0.361077     0.474045
C      1.822188     0.507288     0.496171
H     -0.296299     0.246912     0.762033
H     -3.854218    -0.016934     0.395365
H     -3.416483     0.969621    -0.956282
H      0.178649    -0.240009    -1.662926
H     -0.599339    -1.616516    -0.871968
H      0.655242    -1.145326     1.232996
H      1.135138    -1.645590    -1.189430
H      2.711931    -0.075013     0.240296
H      1.982388     0.944430     1.484372
H      1.746520     1.329040    -0.221672
14
Iteration 120, Energy=-157.1541364749, |grad|=0.001303
C     -3.341648     0.929900     0.143932
C      0.305086    -1.000492    -0.886720
C      0.569060    -0.361176     0.474718
C      1.824868     0.506619     0.496309
H     -0.293409     0.246962     0.764306
H     -3.862266    -0.014333     0.395714
H     -3.425412     0.968172    -0.959167
H      0.178760    -0.238868    -1.661881
H     -0.599453    -1.614727    -0.870500
H      0.658301    -1.146293     1.232638
H      1.134694    -1.645439    -1.190295
H      2.714703    -0.075629     0.239995
H      1.985753     0.943405     1.484623
H      1.749104     1.328805    -0.220879
14
Iteration 121, Energy=-157.1541379613, |grad|=0.001133
C     -3.348009     0.927058     0.137245
C      0.306238    -0.998712    -0.885427
C      0.573998    -0.361312     0.476075
C      1.830422     0.505358     0.496797
H     -0.287409     0.247039     0.769286
H     -3.878670    -0.009118     0.396498
H     -3.443563     0.965243    -0.964877
H      0.179233    -0.236559    -1.659951
H     -0.599480    -1.611206    -0.867548
H      0.664264    -1.148333     1.231903
H      1.134047    -1.644688    -1.191698
H      2.719984    -0.077280     0.238915
H      1.993013     0.941152     1.485033
H      1.754073     1.328263    -0.219459
14
Iteration 122, Energy=-157.1541389240, |grad|=0.002028
C     -3.360911     0.922734     0.125055
C      0.308419    -0.995248    -0.883118
C      0.583090    -0.361756     0.479199
C      1.840936     0.502714     0.497126
H     -0.276176     0.246839     0.777803
H     -3.909094     0.000151     0.397852
H     -3.477118     0.959619    -0.975543
H      0.180670    -0.231697    -1.655752
H     -0.599055    -1.604913    -0.862564
H      0.675232    -1.151591     1.231593
H      1.133267    -1.643229    -1.193994
H      2.728803    -0.080567     0.235876
H      2.007148     0.936620     1.486225
H      1.762931     1.327232    -0.216966
14
Iteration 123, Energy=-157.1541398887, |grad|=0.001565
C     -3.361942     0.921870     0.124000
C      0.308772    -0.994701    -0.882855
C      0.583367    -0.361566     0.479440
C      1.841234     0.502679     0.497152
H     -0.275544     0.246889     0.778952
H     -3.910145     0.000921     0.398183
H     -3.478402     0.959686    -0.975839
H      0.180948    -0.231574    -1.655895
H     -0.598548    -1.604484    -0.862231
H      0.675475    -1.151944     1.231129
H      1.133879    -1.642416    -1.193454
H      2.728195    -0.081637     0.235369
H      2.008174     0.936390     1.486256
H      1.762678     1.326793    -0.217412
14
Iteration 124, Energy=-157.1541409374, |grad|=0.001566
C     -3.373008     0.918874     0.114240
C      0.310986    -0.991939    -0.880735
C      0.590465    -0.362135     0.481851
C      1.849474     0.500866     0.497987
H     -0.266573     0.246585     0.785395
H     -3.934334     0.008149     0.399218
H     -3.505057     0.955137    -0.984257
H      0.182376    -0.227062    -1.652364
H     -0.597886    -1.599769    -0.858595
H      0.684186    -1.154360     1.231651
H      1.133444    -1.640834    -1.194764
H      2.734648    -0.084764     0.232028
H      2.019918     0.932285     1.486828
H      1.769502     1.325872    -0.215690
14
Iteration 125, Energy=-157.1541415334, |grad|=0.000978
C     -3.373675     0.918836     0.113796
C      0.311067    -0.991730    -0.880671
C      0.590718    -0.362189     0.482117
C      1.849726     0.500610     0.497833
H     -0.266298     0.246509     0.785461
H     -3.935251     0.008441     0.399223
H     -3.506096     0.954928    -0.984511
H      0.182570    -0.226630    -1.651998
H     -0.597654    -1.599631    -0.858575
H      0.684588    -1.154357     1.231992
H      1.133601    -1.640683    -1.194667
H      2.734576    -0.084997     0.231612
H      2.020557     0.932050     1.486856
H      1.769713     1.325749    -0.215675
14
Iteration 126, Energy=-157.1541423852, |grad|=0.001107
C     -3.379156     0.917278     0.109062
C      0.312084    -0.990191    -0.879663
C      0.593944    -0.362564     0.483607
C      1.853377     0.499369     0.497778
H     -0.262374     0.246254     0.788132
H     -3.946473     0.012033     0.399628
H     -3.518623     0.952789    -0.988294
H      0.183422    -0.223920    -1.649803
H     -0.596895    -1.597495    -0.857104
H      0.688849    -1.155310     1.232813
H      1.133784    -1.639707    -1.194958
H      2.736949    -0.086698     0.229533
H      2.026342     0.930027     1.487048
H      1.772911     1.325041    -0.214988
14
Iteration 127, Energy=-157.1541432482, |grad|=0.001149
C     -3.384740     0.915250     0.103918
C      0.313194    -0.988608    -0.878512
C      0.597297    -0.362893     0.485169
C      1.857296     0.498047     0.497803
H     -0.258337     0.246006     0.791187
H     -3.958565     0.016089     0.400056
H     -3.532230     0.950547    -0.992379
H      0.184201    -0.221047    -1.647332
H     -0.596153    -1.595210    -0.855490
H      0.693408    -1.156414     1.233471
H      1.133963    -1.638536    -1.195332
H      2.739817    -0.088507     0.227434
H      2.032440     0.927916     1.487036
H      1.776550     1.324264    -0.214236
14
Iteration 128, Energy=-157.1541440433, |grad|=0.001849
C     -3.394041     0.911796     0.094941
C      0.314885    -0.986018    -0.876352
C      0.603359    -0.363464     0.487493
C      1.864286     0.495983     0.497880
H     -0.251336     0.245680     0.796797
H     -3.979577     0.022945     0.400886
H     -3.555721     0.946718    -0.999399
H      0.185399    -0.216564    -1.643307
H     -0.595245    -1.591284    -0.852618
H      0.700966    -1.158398     1.234178
H      1.134133    -1.636701    -1.196371
H      2.745335    -0.091390     0.224260
H      2.042805     0.924441     1.487230
H      1.782895     1.323164    -0.212825
14
Iteration 129, Energy=-157.1541455568, |grad|=0.001124
C     -3.401382     0.907842     0.087199
C      0.316523    -0.983868    -0.874297
C      0.607707    -0.363854     0.489812
C      1.869833     0.493979     0.497724
H     -0.246382     0.245202     0.801420
H     -3.996653     0.029301     0.401488
H     -3.575319     0.943806    -1.005010
H      0.186346    -0.212079    -1.638804
H     -0.594090    -1.588435    -0.850676
H      0.707050    -1.159880     1.235127
H      1.134877    -1.634199    -1.196851
H      2.749608    -0.094257     0.221070
H      2.051577     0.921476     1.486586
H      1.788449     1.321871    -0.211995
14
Iteration 130, Energy=-157.1541459776, |grad|=0.001095
C     -3.406614     0.905572     0.082012
C      0.317535    -0.982485    -0.873234
C      0.611085    -0.364002     0.491265
C      1.873980     0.492795     0.497882
H     -0.242134     0.244968     0.804781
H     -4.008829     0.033417     0.401995
H     -3.589000     0.941649    -1.009159
H      0.186937    -0.209658    -1.636507
H     -0.593675    -1.586146    -0.848925
H      0.711363    -1.161089     1.235348
H      1.134858    -1.633082    -1.197562
H      2.752975    -0.095857     0.219444
H      2.057507     0.919512     1.486657
H      1.792154     1.321311    -0.211204
14
Iteration 131, Energy=-157.1541468060, |grad|=0.000909
C     -3.409145     0.903439     0.078609
C      0.318016    -0.981722    -0.872544
C      0.612994    -0.363954     0.492086
C      1.876533     0.492182     0.498002
H     -0.239611     0.244852     0.807270
H     -4.015993     0.036174     0.402451
H     -3.597173     0.940653    -1.011545
H      0.187041    -0.208511    -1.635103
H     -0.593544    -1.584902    -0.847831
H      0.713498    -1.161906     1.235040
H      1.134982    -1.632053    -1.198173
H      2.755186    -0.096876     0.218851
H      2.060967     0.918534     1.486591
H      1.794391     1.320996    -0.210911
14
Iteration 132, Energy=-157.1541475461, |grad|=0.001306
C     -3.415553     0.899089     0.070833
C      0.319341    -0.979806    -0.870761
C      0.617726    -0.364271     0.493890
C      1.882343     0.490729     0.498001
H     -0.233626     0.244618     0.812471
H     -4.032821     0.042348     0.403404
H     -3.616264     0.938135    -1.017157
H      0.187393    -0.205273    -1.631931
H     -0.593058    -1.582138    -0.845423
H      0.718747    -1.163654     1.235162
H      1.135141    -1.629862    -1.199451
H      2.759913    -0.099198     0.217044
H      2.069306     0.916098     1.486738
H      1.799553     1.320090    -0.210027
14
Iteration 133, Energy=-157.1541483528, |grad|=0.001241
C     -3.418198     0.895810     0.066225
C      0.319541    -0.978774    -0.869948
C      0.620399    -0.364468     0.494863
C      1.885422     0.489935     0.498353
H     -0.230176     0.244553     0.815261
H     -4.041744     0.046030     0.404043
H     -3.626558     0.937149    -1.019959
H      0.187078    -0.203643    -1.630135
H     -0.592692    -1.581008    -0.844152
H      0.721063    -1.164564     1.235416
H      1.135274    -1.628443    -1.200575
H      2.762620    -0.100308     0.216462
H      2.073737     0.914950     1.486696
H      1.802375     1.319686    -0.209757
14
Iteration 134, Energy=-157.1541492139, |grad|=0.000942
C     -3.421750     0.892674     0.061242
C      0.320302    -0.977487    -0.869025
C      0.623252    -0.364842     0.496174
C      1.888852     0.488930     0.498408
H     -0.226366     0.244474     0.817974
H     -4.051918     0.050014     0.404628
H     -3.638251     0.935804    -1.023221
H      0.186937    -0.201341    -1.628032
H     -0.592094    -1.579653    -0.842757
H      0.724185    -1.165476     1.236101
H      1.135339    -1.626921    -1.201489
H      2.765264    -0.101684     0.215290
H      2.078889     0.913467     1.486754
H      1.805503     1.318947    -0.209256
14
Iteration 135, Energy=-157.1541500183, |grad|=0.002283
C     -3.434306     0.881699     0.044010
C      0.322837    -0.973007    -0.865605
C      0.633496    -0.365905     0.500552
C      1.900882     0.485051     0.498820
H     -0.213181     0.244457     0.827207
H     -4.087723     0.064110     0.406530
H     -3.679533     0.930971    -1.034857
H      0.186271    -0.193181    -1.620729
H     -0.589709    -1.574635    -0.837661
H      0.735645    -1.168749     1.238547
H      1.135499    -1.621925    -1.204843
H      2.774747    -0.106475     0.211042
H      2.096779     0.908212     1.487071
H      1.816438     1.316285    -0.207290
14
Iteration 136, Energy=-157.1541510967, |grad|=0.001724
C     -3.431446     0.881018     0.045160
C      0.322550    -0.973383    -0.866013
C      0.632358    -0.365964     0.500224
C      1.899518     0.485287     0.498795
H     -0.214273     0.244816     0.825728
H     -4.083797     0.063393     0.406479
H     -3.675474     0.932181    -1.033416
H      0.185107    -0.193664    -1.621306
H     -0.589488    -1.575968    -0.838135
H      0.733954    -1.168240     1.239042
H      1.135398    -1.621758    -1.205133
H      2.773652    -0.105921     0.211804
H      2.094851     0.909029     1.487118
H      1.815233     1.316080    -0.207553
14
Iteration 137, Energy=-157.1541518880, |grad|=0.001132
C     -3.430631     0.880717     0.045012
C      0.322513    -0.973274    -0.866151
C      0.632118    -0.366061     0.500272
C      1.899379     0.485425     0.499026
H     -0.214639     0.245048     0.825424
H     -4.083278     0.063320     0.406510
H     -3.674907     0.932460    -1.032972
H      0.184695    -0.193890    -1.621179
H     -0.589411    -1.576213    -0.838032
H      0.733769    -1.168018     1.238854
H      1.135457    -1.621686    -1.205327
H      2.773712    -0.105965     0.211914
H      2.094340     0.909095     1.486982
H      1.815026     1.315949    -0.207540
14
Iteration 138, Energy=-157.1541526385, |grad|=0.001008
C     -3.431803     0.877916     0.041670
C      0.322894    -0.972503    -0.865544
C      0.633803    -0.366098     0.500976
C      1.901509     0.484677     0.499292
H     -0.212471     0.245357     0.826847
H     -4.089344     0.066080     0.406918
H     -3.682089     0.931998    -1.034774
H      0.183877    -0.192628    -1.619814
H     -0.588826    -1.575557    -0.836850
H      0.735643    -1.168505     1.239071
H      1.135511    -1.620576    -1.206330
H      2.775581    -0.106856     0.211438
H      2.097060     0.908297     1.487060
H      1.816796     1.315303    -0.207166
14
Iteration 139, Energy=-157.1541538999, |grad|=0.001096
C     -3.434530     0.871118     0.033826
C      0.323782    -0.970609    -0.864127
C      0.637916    -0.366228     0.502611
C      1.906497     0.482966     0.499687
H     -0.207318     0.245997     0.830202
H     -4.103777     0.072729     0.407888
H     -3.699270     0.930947    -1.039216
H      0.181949    -0.189620    -1.616482
H     -0.587530    -1.574035    -0.833855
H      0.740107    -1.169626     1.239456
H      1.135758    -1.617816    -1.208623
H      2.779925    -0.109064     0.210350
H      2.103539     0.906326     1.487372
H      1.821094     1.313821    -0.206297
14
Iteration 140, Energy=-157.1541545081, |grad|=0.002362
C     -3.433735     0.862307     0.025430
C      0.324399    -0.969288    -0.862495
C      0.641247    -0.365691     0.503424
C      1.911205     0.481157     0.500392
H     -0.202893     0.247069     0.832399
H     -4.116510     0.079568     0.409103
H     -3.714899     0.931243    -1.042503
H      0.178098    -0.186927    -1.613256
H     -0.585910    -1.573367    -0.829783
H      0.743931    -1.170496     1.239217
H      1.136262    -1.614200    -1.211611
H      2.783902    -0.111327     0.210228
H      2.108216     0.904561     1.487890
H      1.824830     1.312298    -0.205642
14
Iteration 141, Energy=-157.1541553562, |grad|=0.001205
C     -3.430712     0.864572     0.029548
C      0.323759    -0.970116    -0.863473
C      0.639099    -0.365633     0.502587
C      1.908222     0.482117     0.500098
H     -0.205847     0.247042     0.830153
H     -4.108349     0.076479     0.408658
H     -3.705657     0.932437    -1.040117
H      0.178148    -0.188707    -1.614815
H     -0.586399    -1.574699    -0.830904
H      0.741271    -1.169671     1.238875
H      1.136259    -1.615226    -1.210821
H      2.781627    -0.110281     0.211174
H      2.104249     0.905721     1.487913
H      1.822473     1.312872    -0.206084
14
Iteration 142, Energy=-157.1541556516, |grad|=0.001102
C     -3.432977     0.861296     0.025307
C      0.324364    -0.968910    -0.862818
C      0.641500    -0.366115     0.503675
C      1.910862     0.481384     0.500123
H     -0.202697     0.247041     0.832021
H     -4.116614     0.080044     0.409166
H     -3.715392     0.931630    -1.042787
H      0.177541    -0.186685    -1.612988
H     -0.585772    -1.573931    -0.829500
H      0.743795    -1.170292     1.239642
H      1.136332    -1.613709    -1.211702
H      2.783664    -0.111471     0.210307
H      2.108368     0.904426     1.488016
H      1.825169     1.312198    -0.205670
14
Iteration 143, Energy=-157.1541560993, |grad|=0.000500
C     -3.431504     0.861681     0.026281
C      0.324099    -0.969286    -0.863004
C      0.640709    -0.365972     0.503201
C      1.910016     0.481675     0.500084
H     -0.203663     0.246977     0.831189
H     -4.114063     0.079132     0.409109
H     -3.712495     0.932204    -1.041851
H      0.177257    -0.187222    -1.613511
H     -0.585892    -1.574461    -0.829546
H      0.742976    -1.170045     1.239410
H      1.136404    -1.613831    -1.211512
H      2.782831    -0.111166     0.210766
H      2.106932     0.904699     1.488050
H      1.824535     1.312520    -0.205873
14
Iteration 144, Energy=-157.1541565426, |grad|=0.000540
C     -3.429588     0.859783     0.025284
C      0.323873    -0.969279    -0.862940
C      0.640761    -0.365763     0.502937
C      1.910095     0.481703     0.500100
H     -0.203656     0.246988     0.830779
H     -4.114483     0.079903     0.409346
H     -3.713354     0.932983    -1.041764
H      0.175951    -0.187137    -1.613255
H     -0.585634    -1.574991    -0.828411
H      0.743102    -1.169953     1.239102
H      1.136663    -1.612962    -1.211914
H      2.782757    -0.111457     0.211229
H      2.106572     0.904389     1.488243
H      1.825085     1.312699    -0.205945
14
Iteration 145, Energy=-157.1541568685, |grad|=0.000580
C     -3.428293     0.858271     0.024409
C      0.323797    -0.969153    -0.862841
C      0.640811    -0.365643     0.502793
C      1.910246     0.481796     0.500049
H     -0.203743     0.246872     0.830733
H     -4.115155     0.080641     0.409496
H     -3.714485     0.933544    -1.041864
H      0.174934    -0.187110    -1.613102
H     -0.585429    -1.575433    -0.827551
H      0.743457    -1.169896     1.238872
H      1.136783    -1.612334    -1.212162
H      2.782732    -0.111691     0.211446
H      2.106540     0.904041     1.488371
H      1.825946     1.313001    -0.205855
14
Iteration 146, Energy=-157.1541570876, |grad|=0.000665
C     -3.427646     0.856393     0.022807
C      0.323611    -0.968949    -0.862746
C      0.641341    -0.365459     0.503004
C      1.910789     0.481717     0.500029
H     -0.203300     0.246668     0.831183
H     -4.117259     0.081938     0.409696
H     -3.717274     0.933890    -1.042388
H      0.173943    -0.186825    -1.612715
H     -0.585017    -1.575641    -0.826662
H      0.744303    -1.169936     1.238774
H      1.136870    -1.611604    -1.212506
H      2.783098    -0.112083     0.211407
H      2.107350     0.903537     1.488533
H      1.827332     1.313258    -0.205624
14
Iteration 147, Energy=-157.1541572843, |grad|=0.000322
C     -3.427357     0.855538     0.022156
C      0.323644    -0.968775    -0.862636
C      0.641477    -0.365379     0.503010
C      1.911067     0.481760     0.500066
H     -0.203292     0.246525     0.831578
H     -4.118148     0.082550     0.409738
H     -3.718556     0.934086    -1.042670
H      0.173440    -0.186852    -1.612658
H     -0.584900    -1.575850    -0.826362
H      0.744799    -1.169922     1.238691
H      1.136826    -1.611374    -1.212628
H      2.783248    -0.112224     0.211313
H      2.107755     0.903315     1.488592
H      1.828138     1.313508    -0.205398
14
Iteration 148, Energy=-157.1541573886, |grad|=0.000310
C     -3.427350     0.855455     0.022042
C      0.323633    -0.968783    -0.862626
C      0.641416    -0.365318     0.503044
C      1.911139     0.481849     0.500071
H     -0.203440     0.246415     0.831885
H     -4.118232     0.082634     0.409704
H     -3.718757     0.934169    -1.042694
H      0.173311    -0.187049    -1.612817
H     -0.584891    -1.575980    -0.826513
H      0.745003    -1.169839     1.238624
H      1.136720    -1.611483    -1.212602
H      2.783240    -0.112186     0.211193
H      2.107930     0.903337     1.488661
H      1.828421     1.313685    -0.205179
14
Iteration 149, Energy=-157.1541574454, |grad|=0.000383
C     -3.427621     0.855087     0.021540
C      0.323604    -0.968710    -0.862568
C      0.641669    -0.365239     0.503104
C      1.911435     0.481820     0.500253
H     -0.203180     0.246331     0.832391
H     -4.119060     0.083042     0.409719
H     -3.719854     0.934201    -1.042986
H      0.173159    -0.187098    -1.612818
H     -0.584861    -1.576040    -0.826611
H      0.745437    -1.169831     1.238670
H      1.136646    -1.611495    -1.212655
H      2.783443    -0.112253     0.210967
H      2.108553     0.903260     1.488736
H      1.828771     1.313830    -0.204950
14
Iteration 150, Energy=-157.1541574917, |grad|=0.000171
C     -3.427585     0.854704     0.021150
C      0.323609    -0.968713    -0.862522
C      0.641801    -0.365224     0.503177
C      1.911654     0.481788     0.500252
H     -0.202935     0.246368     0.832541
H     -4.119561     0.083330     0.409767
H     -3.720516     0.934282    -1.043121
H      0.172968    -0.187053    -1.612746
H     -0.584815    -1.576066    -0.826520
H      0.745625    -1.169824     1.238656
H      1.136645    -1.611373    -1.212762
H      2.783574    -0.112314     0.210931
H      2.108833     0.903208     1.488829
H      1.828843     1.313794    -0.204837
