9
Iteration -1, Energy=-154.0853790570, |grad|=0.031730
C     -0.981548     0.055656     0.025335
C      0.481379    -0.321800    -0.178899
O      1.332781     0.315512     0.755556
H     -1.356907     0.735178    -0.737214
H     -1.609659    -0.832617     0.035078
H     -1.071502     0.546318     0.988652
H      0.794247    -0.129140    -1.214342
H      0.611183    -1.392585    -0.030294
H      1.800026     1.023479     0.356128
9
Iteration 0, Energy=-154.0855462662, |grad|=0.018279
C     -0.980668     0.055821     0.025794
C      0.485742    -0.322501    -0.179254
O      1.329714     0.311183     0.754348
H     -1.357248     0.736402    -0.738285
H     -1.611571    -0.833170     0.034169
H     -1.072808     0.546748     0.991125
H      0.794771    -0.128030    -1.212112
H      0.611189    -1.393381    -0.029107
H      1.800878     1.026928     0.353322
9
Iteration 1, Energy=-154.0856256536, |grad|=0.014064
C     -0.979906     0.055904     0.026122
C      0.487954    -0.323995    -0.179395
O      1.330283     0.310984     0.751958
H     -1.357350     0.737454    -0.739039
H     -1.613323    -0.833280     0.033097
H     -1.074158     0.546929     0.993375
H      0.795804    -0.126711    -1.210452
H      0.611293    -1.394496    -0.027972
H      1.799402     1.027211     0.352307
9
Iteration 2, Energy=-154.0857918351, |grad|=0.012326
C     -0.978856     0.056208     0.027735
C      0.490643    -0.328443    -0.178615
O      1.334807     0.309494     0.746177
H     -1.356144     0.740261    -0.739907
H     -1.618750    -0.831387     0.028441
H     -1.079052     0.545912     0.999566
H      0.800991    -0.121931    -1.206489
H      0.612523    -1.400174    -0.023488
H      1.793839     1.030060     0.346580
9
Iteration 3, Energy=-154.0859380740, |grad|=0.014339
C     -0.980501     0.057573     0.030271
C      0.493200    -0.333784    -0.177378
O      1.343247     0.306789     0.741627
H     -1.351706     0.742905    -0.737612
H     -1.624888    -0.826473     0.021305
H     -1.085196     0.541709     1.004179
H      0.806971    -0.118272    -1.201148
H      0.614224    -1.405587    -0.018156
H      1.784650     1.035140     0.336913
9
Iteration 4, Energy=-154.0860432825, |grad|=0.024140
C     -0.975408     0.054912     0.032859
C      0.492330    -0.337422    -0.168236
O      1.360117     0.300134     0.733476
H     -1.341747     0.751348    -0.732437
H     -1.636873    -0.816876     0.006671
H     -1.096608     0.532616     1.013046
H      0.816403    -0.116459    -1.193959
H      0.617400    -1.414403    -0.009190
H      1.764385     1.046150     0.317771
9
Iteration 5, Energy=-154.0862003881, |grad|=0.011331
C     -0.977295     0.056586     0.033933
C      0.493491    -0.338722    -0.168643
O      1.363695     0.300602     0.734357
H     -1.337572     0.752667    -0.728930
H     -1.636736    -0.815070     0.003901
H     -1.097073     0.528921     1.011209
H      0.814663    -0.120744    -1.192628
H      0.617266    -1.412155    -0.008862
H      1.759559     1.047914     0.315663
9
Iteration 6, Energy=-154.0863310630, |grad|=0.013163
C     -0.977144     0.057106     0.034543
C      0.494374    -0.339323    -0.166266
O      1.369778     0.300151     0.733932
H     -1.329500     0.757542    -0.723039
H     -1.637253    -0.811728    -0.002441
H     -1.098659     0.522406     1.010777
H      0.811771    -0.129304    -1.191268
H      0.617220    -1.409731    -0.007327
H      1.749413     1.052881     0.311091
9
Iteration 7, Energy=-154.0865312156, |grad|=0.019509
C     -0.974423     0.057853     0.036304
C      0.495906    -0.341842    -0.161808
O      1.380107     0.299058     0.729661
H     -1.314106     0.770047    -0.713505
H     -1.639033    -0.806365    -0.016568
H     -1.102586     0.510434     1.014409
H      0.807329    -0.144855    -1.189543
H      0.617433    -1.409254    -0.001578
H      1.729373     1.064923     0.302627
9
Iteration 8, Energy=-154.0871347561, |grad|=0.041169
C     -0.965592     0.060541     0.040383
C      0.501477    -0.353075    -0.147801
O      1.410416     0.298340     0.707769
H     -1.259585     0.817624    -0.679951
H     -1.641350    -0.787706    -0.068831
H     -1.114642     0.468955     1.033710
H      0.791185    -0.200725    -1.188585
H      0.617860    -1.413767     0.024243
H      1.660231     1.109813     0.279063
9
Iteration 9, Energy=-154.0878602571, |grad|=0.067863
C     -0.948345     0.066476     0.048292
C      0.505898    -0.366711    -0.136296
O      1.437099     0.307879     0.672328
H     -1.186982     0.886384    -0.634445
H     -1.636198    -0.766590    -0.140116
H     -1.124010     0.412136     1.058991
H      0.762275    -0.284728    -1.195552
H      0.616819    -1.421843     0.063687
H      1.573444     1.166997     0.263111
9
Iteration 0, Energy=-154.0876255906, |grad|=0.074617
C     -0.949679     0.065271     0.048237
C      0.501236    -0.366210    -0.136903
O      1.436927     0.306929     0.674688
H     -1.187195     0.886210    -0.634737
H     -1.634179    -0.766653    -0.139932
H     -1.121980     0.412302     1.055098
H      0.764408    -0.282977    -1.195843
H      0.616479    -1.415968     0.062967
H      1.573688     1.166838     0.264295
9
Iteration 1, Energy=-154.0878783400, |grad|=0.066732
C     -0.948211     0.066575     0.048195
C      0.506176    -0.366548    -0.136673
O      1.436572     0.307846     0.672535
H     -1.187674     0.885716    -0.634827
H     -1.636200    -0.766908    -0.139338
H     -1.123821     0.412648     1.058821
H      0.762203    -0.284399    -1.195569
H      0.616812    -1.421889     0.063308
H      1.574461     1.166325     0.263571
9
Iteration -1, Energy=-154.0878783400, |grad|=0.066732
C     -0.948211     0.066575     0.048195
C      0.506176    -0.366548    -0.136673
O      1.436572     0.307846     0.672535
H     -1.187674     0.885716    -0.634827
H     -1.636200    -0.766908    -0.139338
H     -1.123821     0.412648     1.058821
H      0.762203    -0.284399    -1.195569
H      0.616812    -1.421889     0.063308
H      1.574461     1.166325     0.263571
9
Iteration 0, Energy=-154.0881167062, |grad|=0.055670
C     -0.947865     0.066572     0.047819
C      0.505973    -0.367251    -0.137194
O      1.436074     0.309791     0.670726
H     -1.188024     0.885743    -0.634695
H     -1.635941    -0.766532    -0.139658
H     -1.123778     0.412722     1.059602
H      0.762558    -0.283949    -1.195821
H      0.616833    -1.422634     0.064339
H      1.574486     1.164902     0.264904
9
Iteration 1, Energy=-154.0889491109, |grad|=0.031273
C     -0.945142     0.066943     0.046170
C      0.504916    -0.372518    -0.142553
O      1.429304     0.317795     0.658136
H     -1.191473     0.886255    -0.633504
H     -1.633579    -0.762912    -0.143097
H     -1.122788     0.412736     1.065717
H      0.765942    -0.280037    -1.198665
H      0.617310    -1.429529     0.074998
H      1.575827     1.160632     0.272821
9
Iteration 2, Energy=-154.0892279750, |grad|=0.026215
C     -0.943916     0.067605     0.046300
C      0.504127    -0.376173    -0.146438
O      1.424372     0.317616     0.652893
H     -1.193950     0.886838    -0.632476
H     -1.632163    -0.760367    -0.145945
H     -1.121323     0.411939     1.068744
H      0.768303    -0.277958    -1.201438
H      0.617645    -1.433320     0.082858
H      1.577222     1.163185     0.275525
9
Iteration 3, Energy=-154.0895947364, |grad|=0.017914
C     -0.944274     0.069357     0.048418
C      0.500653    -0.383490    -0.156042
O      1.419490     0.317129     0.647257
H     -1.200389     0.890087    -0.627389
H     -1.631045    -0.753592    -0.156017
H     -1.112319     0.405043     1.071630
H      0.773526    -0.278813    -1.212572
H      0.617231    -1.437372     0.104156
H      1.577444     1.171016     0.280582
9
Iteration 4, Energy=-154.0897188626, |grad|=0.024925
C     -0.942144     0.068893     0.041615
C      0.503534    -0.382461    -0.158040
O      1.415472     0.313990     0.641911
H     -1.204658     0.894097    -0.621268
H     -1.633313    -0.749667    -0.164276
H     -1.104330     0.398628     1.077174
H      0.775181    -0.284814    -1.218114
H      0.615541    -1.436239     0.117915
H      1.575033     1.176939     0.283107
9
Iteration 5, Energy=-154.0898559793, |grad|=0.017135
C     -0.941977     0.069016     0.042484
C      0.503748    -0.382856    -0.159586
O      1.417148     0.314916     0.642064
H     -1.205905     0.896947    -0.619167
H     -1.634818    -0.748692    -0.167844
H     -1.100394     0.394461     1.076067
H      0.775350    -0.289184    -1.219371
H      0.614412    -1.433399     0.121725
H      1.572752     1.178155     0.283651
9
Iteration 6, Energy=-154.0901446524, |grad|=0.014186
C     -0.940768     0.068843     0.039965
C      0.504947    -0.382385    -0.163053
O      1.422508     0.318428     0.639196
H     -1.210402     0.909375    -0.608010
H     -1.640305    -0.743185    -0.183402
H     -1.083826     0.376149     1.075046
H      0.776481    -0.309502    -1.224163
H      0.609450    -1.422595     0.138299
H      1.562232     1.184239     0.286145
9
Iteration 7, Energy=-154.0903214493, |grad|=0.014334
C     -0.940067     0.070296     0.036189
C      0.504463    -0.381957    -0.164932
O      1.424993     0.321971     0.632932
H     -1.210943     0.920110    -0.597381
H     -1.641668    -0.737557    -0.195519
H     -1.073488     0.360434     1.076290
H      0.778518    -0.327223    -1.225044
H      0.605634    -1.418187     0.150135
H      1.552874     1.191479     0.287353
9
Iteration 8, Energy=-154.0905032661, |grad|=0.041428
C     -0.931366     0.071884     0.030648
C      0.506005    -0.390250    -0.161084
O      1.428790     0.333937     0.607237
H     -1.204893     0.961935    -0.565421
H     -1.642027    -0.719694    -0.234087
H     -1.053971     0.312000     1.085436
H      0.786694    -0.382647    -1.229643
H      0.592020    -1.407001     0.181025
H      1.519064     1.219201     0.285913
9
Iteration 9, Energy=-154.0908896456, |grad|=0.015201
C     -0.931521     0.076592     0.027962
C      0.506135    -0.387460    -0.166999
O      1.431211     0.339398     0.599526
H     -1.196692     0.970761    -0.552850
H     -1.638843    -0.713638    -0.244153
H     -1.054072     0.298222     1.089110
H      0.788083    -0.399295    -1.224497
H      0.589271    -1.412056     0.188940
H      1.506746     1.226840     0.282985
9
Iteration 0, Energy=-154.0909136159, |grad|=0.018747
C     -0.930333     0.076736     0.027990
C      0.506395    -0.388653    -0.166714
O      1.431250     0.339205     0.596018
H     -1.195631     0.974556    -0.550743
H     -1.638636    -0.712274    -0.247469
H     -1.054671     0.296075     1.090712
H      0.788092    -0.402076    -1.224123
H      0.589533    -1.412589     0.190688
H      1.502388     1.230580     0.283015
9
Iteration 1, Energy=-154.0909235218, |grad|=0.016973
C     -0.931015     0.076996     0.028321
C      0.506369    -0.387668    -0.167104
O      1.430907     0.338349     0.597712
H     -1.195165     0.971220    -0.553207
H     -1.638460    -0.713725    -0.243918
H     -1.056322     0.300124     1.090235
H      0.787601    -0.397626    -1.223470
H      0.590371    -1.413041     0.187678
H      1.505137     1.228344     0.282916
9
Iteration -1, Energy=-154.0908896456, |grad|=0.015201
C     -0.931521     0.076592     0.027962
C      0.506135    -0.387460    -0.166999
O      1.431211     0.339398     0.599526
H     -1.196692     0.970761    -0.552850
H     -1.638843    -0.713638    -0.244153
H     -1.054072     0.298222     1.089110
H      0.788083    -0.399295    -1.224497
H      0.589271    -1.412056     0.188940
H      1.506746     1.226840     0.282985
9
Iteration 0, Energy=-154.0910661399, |grad|=0.016462
C     -0.931791     0.079116     0.029588
C      0.506219    -0.389966    -0.165757
O      1.432077     0.340037     0.598014
H     -1.188487     0.966902    -0.547782
H     -1.635887    -0.710852    -0.245892
H     -1.062488     0.299538     1.089714
H      0.787560    -0.396611    -1.226650
H      0.591011    -1.415291     0.189971
H      1.502103     1.226491     0.278817
9
Iteration 1, Energy=-154.0913090313, |grad|=0.015323
C     -0.928363     0.076623     0.036743
C      0.506506    -0.393160    -0.164345
O      1.433690     0.340065     0.594821
H     -1.173159     0.965717    -0.541574
H     -1.631036    -0.705504    -0.250180
H     -1.079630     0.302235     1.091409
H      0.785334    -0.391742    -1.228413
H      0.594605    -1.421377     0.191752
H      1.492369     1.226508     0.269812
9
Iteration 2, Energy=-154.0913978548, |grad|=0.036760
C     -0.919801     0.074729     0.044781
C      0.512718    -0.405000    -0.155904
O      1.437658     0.345150     0.584660
H     -1.143774     0.970389    -0.532967
H     -1.628382    -0.701480    -0.261994
H     -1.109641     0.304647     1.100797
H      0.775737    -0.385156    -1.224346
H      0.602974    -1.426606     0.190832
H      1.472828     1.222690     0.254163
9
Iteration 3, Energy=-154.0915827138, |grad|=0.014206
C     -0.921509     0.073370     0.046360
C      0.512221    -0.400729    -0.156216
O      1.439049     0.340938     0.586019
H     -1.141535     0.972388    -0.533305
H     -1.628375    -0.700771    -0.263411
H     -1.109583     0.303061     1.099963
H      0.773907    -0.386517    -1.222273
H      0.604816    -1.428976     0.191489
H      1.471325     1.226602     0.251398
9
Iteration 4, Energy=-154.0916308197, |grad|=0.009784
C     -0.922970     0.073152     0.045836
C      0.511137    -0.399262    -0.155819
O      1.440123     0.341767     0.586389
H     -1.142935     0.974100    -0.534597
H     -1.629349    -0.701212    -0.263794
H     -1.106218     0.301217     1.099147
H      0.773037    -0.388403    -1.220861
H      0.605353    -1.428528     0.191259
H      1.472139     1.226533     0.252464
9
Iteration 5, Energy=-154.0917143365, |grad|=0.008158
C     -0.924569     0.073209     0.046165
C      0.509288    -0.399476    -0.151077
O      1.443940     0.343649     0.584486
H     -1.136509     0.979138    -0.533858
H     -1.630655    -0.699814    -0.269351
H     -1.106546     0.295845     1.099627
H      0.767260    -0.392078    -1.216575
H      0.610133    -1.429040     0.191214
H      1.467975     1.227932     0.249392
9
Iteration 6, Energy=-154.0917867756, |grad|=0.014943
C     -0.924769     0.073916     0.048161
C      0.509498    -0.400821    -0.147996
O      1.446704     0.348316     0.578837
H     -1.122529     0.984535    -0.528223
H     -1.630904    -0.693806    -0.280271
H     -1.112266     0.287257     1.101507
H      0.757359    -0.397515    -1.210674
H      0.617768    -1.432225     0.195216
H      1.459457     1.229709     0.243466
9
Iteration 7, Energy=-154.0918767164, |grad|=0.010888
C     -0.923620     0.073804     0.049640
C      0.508232    -0.404371    -0.142392
O      1.448358     0.351649     0.573530
H     -1.110005     0.989755    -0.521674
H     -1.630901    -0.686550    -0.291440
H     -1.117129     0.278110     1.103335
H      0.749041    -0.403646    -1.208938
H      0.624469    -1.433314     0.200256
H      1.451871     1.233928     0.237706
9
Iteration 8, Energy=-154.0920187839, |grad|=0.011214
C     -0.920103     0.073495     0.051876
C      0.507648    -0.410477    -0.138387
O      1.448541     0.358088     0.564720
H     -1.091617     0.997747    -0.507832
H     -1.631268    -0.672724    -0.311334
H     -1.123893     0.261481     1.106985
H      0.737197    -0.416479    -1.208768
H      0.633237    -1.433729     0.213156
H      1.440575     1.241962     0.229607
9
Iteration 9, Energy=-154.0921969874, |grad|=0.017397
C     -0.916521     0.070370     0.054135
C      0.510043    -0.416016    -0.134028
O      1.446217     0.368948     0.548304
H     -1.066339     1.012772    -0.481794
H     -1.632471    -0.649343    -0.344313
H     -1.130981     0.232301     1.113178
H      0.723891    -0.442113    -1.212825
H      0.642748    -1.431706     0.238705
H      1.423729     1.254153     0.218661
9
Iteration 0, Energy=-154.0921848028, |grad|=0.020104
C     -0.915366     0.070186     0.054280
C      0.510018    -0.417746    -0.134040
O      1.445978     0.368953     0.544087
H     -1.059094     1.015553    -0.481700
H     -1.632492    -0.649295    -0.344436
H     -1.130876     0.231555     1.114888
H      0.723783    -0.447188    -1.212950
H      0.642748    -1.431570     0.238830
H      1.419102     1.256296     0.218658
9
Iteration 1, Energy=-154.0921333956, |grad|=0.023631
C     -0.914903     0.069926     0.054161
C      0.510044    -0.418588    -0.134833
O      1.445731     0.367186     0.542275
H     -1.056506     1.016955    -0.485857
H     -1.632463    -0.652431    -0.339316
H     -1.130333     0.233124     1.115622
H      0.725481    -0.449872    -1.212727
H      0.641639    -1.431347     0.236174
H      1.417966     1.257224     0.221105
9
Iteration -1, Energy=-154.0921969874, |grad|=0.017397
C     -0.916521     0.070370     0.054135
C      0.510043    -0.416016    -0.134028
O      1.446217     0.368948     0.548304
H     -1.066339     1.012772    -0.481794
H     -1.632471    -0.649343    -0.344313
H     -1.130981     0.232301     1.113178
H      0.723891    -0.442113    -1.212825
H      0.642748    -1.431706     0.238705
H      1.423729     1.254153     0.218661
9
Iteration 0, Energy=-154.0922338439, |grad|=0.011660
C     -0.916222     0.070529     0.054709
C      0.509870    -0.415893    -0.135918
O      1.446725     0.368878     0.548714
H     -1.066570     1.013018    -0.481287
H     -1.632678    -0.649672    -0.344497
H     -1.131099     0.232191     1.112994
H      0.724560    -0.442451    -1.212180
H      0.642243    -1.431522     0.239124
H      1.423487     1.254287     0.218365
9
Iteration 1, Energy=-154.0922883467, |grad|=0.009170
C     -0.915642     0.070759     0.055314
C      0.509751    -0.415732    -0.139767
O      1.447989     0.368833     0.549017
H     -1.067648     1.014018    -0.478917
H     -1.633048    -0.650463    -0.344923
H     -1.131448     0.231674     1.112866
H      0.727802    -0.443825    -1.211432
H      0.639918    -1.430167     0.240381
H      1.422644     1.254267     0.217483
9
Iteration 2, Energy=-154.0923325659, |grad|=0.011416
C     -0.915380     0.070785     0.055266
C      0.510022    -0.415212    -0.142075
O      1.448941     0.368568     0.548460
H     -1.069207     1.015459    -0.475721
H     -1.633173    -0.651061    -0.345310
H     -1.131662     0.230771     1.112828
H      0.732346    -0.445688    -1.211728
H      0.636778    -1.428423     0.241860
H      1.421652     1.254167     0.216445
9
Iteration 3, Energy=-154.0924221508, |grad|=0.011770
C     -0.915361     0.071287     0.054120
C      0.511065    -0.413874    -0.145573
O      1.450772     0.369118     0.545322
H     -1.074219     1.020041    -0.466666
H     -1.632776    -0.651881    -0.346441
H     -1.131396     0.227026     1.112534
H      0.745163    -0.451289    -1.213328
H      0.627868    -1.424296     0.246089
H      1.419201     1.253233     0.213968
9
Iteration 4, Energy=-154.0924407370, |grad|=0.012751
C     -0.915269     0.071526     0.053141
C      0.511439    -0.413319    -0.145778
O      1.450965     0.367557     0.544652
H     -1.076205     1.022010    -0.464028
H     -1.632305    -0.651563    -0.347047
H     -1.130739     0.224969     1.112561
H      0.748642    -0.453367    -1.213509
H      0.625271    -1.423472     0.247603
H      1.418517     1.255024     0.212428
9
Iteration 5, Energy=-154.0924728960, |grad|=0.006657
C     -0.915414     0.072056     0.051865
C      0.511956    -0.412957    -0.145666
O      1.451300     0.368572     0.542435
H     -1.079112     1.024795    -0.459907
H     -1.631607    -0.651177    -0.347905
H     -1.129796     0.221991     1.112404
H      0.754180    -0.456428    -1.214286
H      0.621171    -1.422112     0.249737
H      1.417637     1.254626     0.211346
9
Iteration 6, Energy=-154.0924941346, |grad|=0.004709
C     -0.915417     0.072924     0.050679
C      0.512217    -0.412976    -0.144684
O      1.451097     0.369734     0.540903
H     -1.081430     1.027234    -0.457693
H     -1.630731    -0.650013    -0.349228
H     -1.128129     0.218464     1.112203
H      0.756303    -0.458952    -1.214046
H      0.619018    -1.422074     0.251442
H      1.417389     1.255022     0.210448
9
Iteration 7, Energy=-154.0925137874, |grad|=0.005747
C     -0.915101     0.074103     0.049431
C      0.512162    -0.413157    -0.143595
O      1.450821     0.371314     0.539745
H     -1.083894     1.030189    -0.455733
H     -1.629646    -0.648055    -0.351623
H     -1.125626     0.213467     1.112051
H      0.756922    -0.462138    -1.213047
H      0.617359    -1.422439     0.253651
H      1.417319     1.256081     0.209145
9
Iteration 8, Energy=-154.0925339483, |grad|=0.005083
C     -0.914776     0.075288     0.048742
C      0.512266    -0.413171    -0.143190
O      1.450531     0.373100     0.539103
H     -1.085545     1.033095    -0.453135
H     -1.628706    -0.645474    -0.355778
H     -1.122941     0.207319     1.112189
H      0.756266    -0.466252    -1.211798
H      0.616058    -1.421915     0.256786
H      1.417164     1.257374     0.207105
9
Iteration 9, Energy=-154.0925450525, |grad|=0.011921
C     -0.912479     0.074444     0.047449
C      0.509618    -0.412340    -0.142559
O      1.450341     0.376700     0.537873
H     -1.085367     1.038284    -0.446755
H     -1.627491    -0.640032    -0.365614
H     -1.120371     0.196230     1.114125
H      0.754153    -0.474031    -1.210835
H      0.615097    -1.419418     0.264054
H      1.416816     1.259527     0.202287
9
Iteration 0, Energy=-154.0925423518, |grad|=0.011492
C     -0.913331     0.075677     0.046110
C      0.510625    -0.411755    -0.142749
O      1.450790     0.378045     0.537462
H     -1.087916     1.041479    -0.442156
H     -1.627168    -0.639681    -0.366637
H     -1.120320     0.193618     1.114092
H      0.758391    -0.477024    -1.210444
H      0.612540    -1.418063     0.266195
H      1.416545     1.259639     0.199773
9
Iteration 1, Energy=-154.0925212672, |grad|=0.016341
C     -0.911728     0.074471     0.046379
C      0.509105    -0.412334    -0.141807
O      1.450030     0.378237     0.536387
H     -1.087712     1.041340    -0.443549
H     -1.627074    -0.635737    -0.371563
H     -1.118295     0.189347     1.114264
H      0.754842    -0.478324    -1.210751
H      0.614981    -1.418943     0.267899
H      1.416740     1.260998     0.200471
9
Iteration -1, Energy=-154.0925423518, |grad|=0.011492
C     -0.913331     0.075677     0.046110
C      0.510625    -0.411755    -0.142749
O      1.450790     0.378045     0.537462
H     -1.087916     1.041479    -0.442156
H     -1.627168    -0.639681    -0.366637
H     -1.120320     0.193618     1.114092
H      0.758391    -0.477024    -1.210444
H      0.612540    -1.418063     0.266195
H      1.416545     1.259639     0.199773
9
Iteration 0, Energy=-154.0925639677, |grad|=0.004349
C     -0.914236     0.076602     0.048024
C      0.512122    -0.412309    -0.143546
O      1.450146     0.377138     0.537316
H     -1.087049     1.040855    -0.441858
H     -1.627414    -0.639838    -0.367215
H     -1.120685     0.193533     1.113107
H      0.757952    -0.476824    -1.209925
H      0.612743    -1.417540     0.266371
H      1.416576     1.260319     0.199373
9
Iteration 1, Energy=-154.0925688300, |grad|=0.003823
C     -0.914323     0.076394     0.048304
C      0.512168    -0.412404    -0.143548
O      1.449993     0.377408     0.536992
H     -1.086301     1.040568    -0.441604
H     -1.627478    -0.639677    -0.367547
H     -1.121214     0.193570     1.113170
H      0.757664    -0.476673    -1.209980
H      0.613021    -1.417323     0.266549
H      1.416626     1.260073     0.199309
9
Iteration 2, Energy=-154.0925918008, |grad|=0.005063
C     -0.914572     0.074455     0.049956
C      0.511954    -0.412667    -0.143329
O      1.449145     0.378074     0.535219
H     -1.080547     1.038649    -0.439696
H     -1.628008    -0.638396    -0.370108
H     -1.125407     0.193779     1.114000
H      0.755369    -0.475575    -1.210540
H      0.615354    -1.415986     0.268018
H      1.416867     1.259603     0.198126
9
Iteration 3, Energy=-154.0926091828, |grad|=0.003830
C     -0.914511     0.072799     0.051593
C      0.510972    -0.413533    -0.142769
O      1.449489     0.378676     0.534480
H     -1.074243     1.037723    -0.437802
H     -1.628865    -0.637151    -0.373271
H     -1.130267     0.193189     1.114928
H      0.752187    -0.474603    -1.210936
H      0.618515    -1.415608     0.269631
H      1.416879     1.260444     0.195792
9
Iteration 4, Energy=-154.0926204013, |grad|=0.005475
C     -0.915512     0.071232     0.052439
C      0.511772    -0.413713    -0.140318
O      1.449509     0.379659     0.533015
H     -1.067550     1.038261    -0.435745
H     -1.629344    -0.635041    -0.376781
H     -1.135740     0.191194     1.115876
H      0.747776    -0.474101    -1.210668
H      0.622569    -1.416939     0.271303
H      1.416677     1.261383     0.192523
9
Iteration 5, Energy=-154.0926308631, |grad|=0.002717
C     -0.915008     0.071538     0.053108
C      0.511386    -0.414740    -0.139327
O      1.450269     0.380999     0.532834
H     -1.065135     1.039454    -0.434781
H     -1.629710    -0.634184    -0.378748
H     -1.138179     0.189328     1.115830
H      0.745487    -0.474336    -1.209619
H      0.624685    -1.417993     0.271829
H      1.416361     1.261870     0.190520
9
Iteration 6, Energy=-154.0926377292, |grad|=0.002440
C     -0.914739     0.072201     0.053100
C      0.511436    -0.415432    -0.138217
O      1.450742     0.381938     0.532699
H     -1.064677     1.041130    -0.433905
H     -1.629287    -0.632991    -0.379967
H     -1.139315     0.187119     1.115426
H      0.744167    -0.475271    -1.208087
H      0.625960    -1.418984     0.271918
H      1.415868     1.262225     0.188678
9
Iteration 7, Energy=-154.0926450153, |grad|=0.003471
C     -0.913990     0.072977     0.053547
C      0.511366    -0.415199    -0.136941
O      1.450730     0.382880     0.531969
H     -1.063918     1.042832    -0.431536
H     -1.628501    -0.630914    -0.382548
H     -1.141118     0.183907     1.115143
H      0.743249    -0.477174    -1.206488
H      0.627332    -1.419590     0.272787
H      1.415006     1.262219     0.185712
9
Iteration 8, Energy=-154.0926567009, |grad|=0.003771
C     -0.913677     0.073502     0.054069
C      0.511606    -0.416297    -0.134808
O      1.450848     0.384926     0.530564
H     -1.062114     1.046264    -0.425926
H     -1.626314    -0.626122    -0.388212
H     -1.144934     0.177535     1.115448
H      0.742040    -0.481136    -1.203863
H      0.629385    -1.419083     0.274965
H      1.413316     1.262346     0.179408
9
Iteration 9, Energy=-154.0926711691, |grad|=0.003873
C     -0.913361     0.073495     0.055296
C      0.511917    -0.416043    -0.133831
O      1.450692     0.387125     0.528693
H     -1.060034     1.049674    -0.419072
H     -1.624653    -0.621756    -0.395185
H     -1.148637     0.171088     1.116300
H      0.742090    -0.485478    -1.202337
H      0.630343    -1.418375     0.278861
H      1.411798     1.262205     0.172920
9
Iteration 0, Energy=-154.0926773713, |grad|=0.003954
C     -0.913290     0.073728     0.055722
C      0.512092    -0.416531    -0.133501
O      1.450692     0.387909     0.527454
H     -1.058651     1.050606    -0.413972
H     -1.624005    -0.618674    -0.400649
H     -1.149943     0.170805     1.116798
H      0.742115    -0.486918    -1.202266
H      0.630759    -1.418111     0.281137
H      1.411738     1.262076     0.168548
9
Iteration 1, Energy=-154.0926744618, |grad|=0.003891
C     -0.913675     0.072963     0.055218
C      0.511941    -0.415914    -0.134663
O      1.450582     0.386686     0.528199
H     -1.059052     1.048776    -0.417427
H     -1.625368    -0.621147    -0.396300
H     -1.147297     0.175139     1.116494
H      0.742531    -0.484564    -1.204058
H      0.629525    -1.418389     0.279195
H      1.412579     1.262341     0.172000
9
Iteration -1, Energy=-154.0926744618, |grad|=0.003891
C     -0.913675     0.072963     0.055218
C      0.511941    -0.415914    -0.134663
O      1.450582     0.386686     0.528199
H     -1.059052     1.048776    -0.417427
H     -1.625368    -0.621147    -0.396300
H     -1.147297     0.175139     1.116494
H      0.742531    -0.484564    -1.204058
H      0.629525    -1.418389     0.279195
H      1.412579     1.262341     0.172000
9
Iteration 0, Energy=-154.0926776741, |grad|=0.003087
C     -0.913473     0.073061     0.055258
C      0.511858    -0.416519    -0.134645
O      1.450593     0.387317     0.527856
H     -1.058976     1.049231    -0.417450
H     -1.625735    -0.621508    -0.396433
H     -1.147241     0.174648     1.116692
H      0.742818    -0.484586    -1.204290
H      0.629096    -1.417833     0.279459
H      1.412826     1.262082     0.172212
9
Iteration 1, Energy=-154.0926799407, |grad|=0.002581
C     -0.913488     0.073043     0.055187
C      0.511871    -0.416541    -0.134803
O      1.450574     0.387243     0.527726
H     -1.058867     1.049585    -0.417413
H     -1.625971    -0.621717    -0.396486
H     -1.147164     0.174154     1.116854
H      0.743075    -0.484663    -1.204431
H      0.628722    -1.417542     0.279855
H      1.413013     1.262329     0.172168
9
Iteration 2, Energy=-154.0926876579, |grad|=0.002190
C     -0.914231     0.073009     0.054399
C      0.511812    -0.415919    -0.136036
O      1.450556     0.387475     0.526664
H     -1.058132     1.051309    -0.416717
H     -1.627053    -0.622522    -0.396634
H     -1.146486     0.170754     1.117491
H      0.744752    -0.485389    -1.205226
H      0.626284    -1.416070     0.282647
H      1.414265     1.263245     0.172072
9
Iteration 3, Energy=-154.0926893327, |grad|=0.004487
C     -0.914465     0.073534     0.054025
C      0.511124    -0.415888    -0.135952
O      1.450621     0.387482     0.526091
H     -1.058156     1.051563    -0.415150
H     -1.627377    -0.622161    -0.396978
H     -1.145587     0.167826     1.116524
H      0.745962    -0.486525    -1.205741
H      0.624419    -1.414303     0.284332
H      1.415226     1.264364     0.171508
9
Iteration 4, Energy=-154.0926923273, |grad|=0.001772
C     -0.914368     0.073181     0.053865
C      0.511208    -0.415499    -0.136323
O      1.450594     0.387835     0.525995
H     -1.058329     1.051732    -0.414957
H     -1.627276    -0.621884    -0.397094
H     -1.145563     0.167631     1.116568
H      0.745901    -0.486764    -1.205419
H      0.624311    -1.414429     0.284534
H      1.415287     1.264090     0.171490
9
Iteration 5, Energy=-154.0926938312, |grad|=0.001408
C     -0.914223     0.073028     0.053628
C      0.511285    -0.415202    -0.136470
O      1.450531     0.388206     0.525847
H     -1.058702     1.051843    -0.414302
H     -1.627142    -0.621367    -0.397452
H     -1.145378     0.166953     1.116373
H      0.745950    -0.487347    -1.205105
H      0.623964    -1.414234     0.284899
H      1.415482     1.264012     0.171240
9
Iteration 6, Energy=-154.0926953767, |grad|=0.001867
C     -0.914021     0.072983     0.053363
C      0.511435    -0.414954    -0.136505
O      1.450447     0.388653     0.525674
H     -1.059315     1.052168    -0.413225
H     -1.627024    -0.620677    -0.398220
H     -1.145086     0.165761     1.116152
H      0.746113    -0.488325    -1.204793
H      0.623404    -1.413829     0.285523
H      1.415813     1.264112     0.170689
9
Iteration 7, Energy=-154.0926982465, |grad|=0.002121
C     -0.913857     0.073061     0.053111
C      0.511672    -0.414730    -0.136380
O      1.450432     0.389508     0.525526
H     -1.060561     1.053245    -0.411085
H     -1.626737    -0.619458    -0.400271
H     -1.144721     0.163482     1.116122
H      0.746486    -0.490323    -1.204396
H      0.622681    -1.413299     0.286798
H      1.416370     1.264407     0.169233
9
Iteration 8, Energy=-154.0927012472, |grad|=0.003713
C     -0.914210     0.073865     0.052947
C      0.512167    -0.414705    -0.135799
O      1.449666     0.390567     0.524281
H     -1.061702     1.055423    -0.406787
H     -1.625796    -0.617542    -0.404724
H     -1.145470     0.159607     1.116894
H      0.747225    -0.493255    -1.203247
H      0.622706    -1.412527     0.289248
H      1.417180     1.264460     0.165845
9
Iteration 9, Energy=-154.0927046998, |grad|=0.001612
C     -0.914246     0.073698     0.053352
C      0.511468    -0.414743    -0.135415
O      1.449882     0.391507     0.523930
H     -1.062365     1.057454    -0.403692
H     -1.625181    -0.616039    -0.407953
H     -1.146025     0.156428     1.116954
H      0.747915    -0.495476    -1.202857
H      0.622527    -1.411782     0.291268
H      1.417790     1.264845     0.163072
9
Iteration 0, Energy=-154.0926916751, |grad|=0.006998
C     -0.914454     0.074080     0.052634
C      0.512292    -0.413606    -0.135384
O      1.449023     0.391691     0.521763
H     -1.062729     1.060759    -0.400962
H     -1.625413    -0.615422    -0.411210
H     -1.146409     0.152028     1.117116
H      0.749064    -0.497494    -1.202668
H      0.620990    -1.409844     0.296255
H      1.420232     1.265465     0.162987
9
Iteration 1, Energy=-154.0926950684, |grad|=0.006308
C     -0.914332     0.073553     0.053623
C      0.510163    -0.415515    -0.134986
O      1.450628     0.392391     0.525080
H     -1.062226     1.057178    -0.401813
H     -1.624447    -0.614753    -0.408182
H     -1.145791     0.152321     1.116616
H      0.748333    -0.497485    -1.202163
H      0.622400    -1.411605     0.290167
H      1.417404     1.265581     0.162432
9
Iteration -1, Energy=-154.0927046998, |grad|=0.001612
C     -0.914246     0.073698     0.053352
C      0.511468    -0.414743    -0.135415
O      1.449882     0.391507     0.523930
H     -1.062365     1.057454    -0.403692
H     -1.625181    -0.616039    -0.407953
H     -1.146025     0.156428     1.116954
H      0.747915    -0.495476    -1.202857
H      0.622527    -1.411782     0.291268
H      1.417790     1.264845     0.163072
9
Iteration 0, Energy=-154.0927061104, |grad|=0.002419
C     -0.914508     0.073866     0.053412
C      0.511489    -0.415136    -0.135095
O      1.450327     0.391449     0.524231
H     -1.061327     1.057269    -0.403490
H     -1.625384    -0.616203    -0.407927
H     -1.146845     0.156225     1.116903
H      0.747654    -0.495024    -1.203242
H      0.622679    -1.411630     0.291375
H      1.417680     1.265077     0.162493
9
Iteration 1, Energy=-154.0927076421, |grad|=0.001630
C     -0.914569     0.073655     0.053557
C      0.511525    -0.415076    -0.135048
O      1.450524     0.391715     0.524200
H     -1.060503     1.057298    -0.403404
H     -1.625519    -0.616256    -0.407915
H     -1.147551     0.156078     1.116872
H      0.747397    -0.494665    -1.203328
H      0.622834    -1.411723     0.291542
H      1.417628     1.264865     0.162184
9
Iteration 2, Energy=-154.0927098136, |grad|=0.001383
C     -0.914533     0.073027     0.053951
C      0.511766    -0.414853    -0.134779
O      1.450685     0.391939     0.523938
H     -1.058173     1.057380    -0.403133
H     -1.625849    -0.616304    -0.407974
H     -1.149641     0.155643     1.116847
H      0.746587    -0.493619    -1.203277
H      0.623388    -1.411948     0.291956
H      1.417534     1.264627     0.161130
9
Iteration 3, Energy=-154.0927104280, |grad|=0.002289
C     -0.914375     0.072912     0.054195
C      0.511702    -0.415349    -0.134348
O      1.450499     0.392399     0.523445
H     -1.056754     1.057247    -0.402804
H     -1.625852    -0.616098    -0.408253
H     -1.151021     0.155302     1.116860
H      0.745971    -0.492969    -1.202873
H      0.623977    -1.411893     0.291983
H      1.417619     1.264340     0.160455
9
Iteration 4, Energy=-154.0927111549, |grad|=0.001036
C     -0.914377     0.072837     0.054283
C      0.511617    -0.415271    -0.134304
O      1.450413     0.392235     0.523447
H     -1.056619     1.057240    -0.402735
H     -1.625753    -0.615942    -0.408390
H     -1.151181     0.155240     1.116857
H      0.745854    -0.492958    -1.202711
H      0.624168    -1.412004     0.291994
H      1.417643     1.264514     0.160220
9
Iteration 5, Energy=-154.0927116774, |grad|=0.000899
C     -0.914382     0.072794     0.054441
C      0.511440    -0.415307    -0.134109
O      1.450228     0.392176     0.523369
H     -1.056367     1.057193    -0.402553
H     -1.625545    -0.615612    -0.408741
H     -1.151505     0.155098     1.116882
H      0.745600    -0.492958    -1.202395
H      0.624576    -1.412165     0.291962
H      1.417722     1.264673     0.159803
9
Iteration 6, Energy=-154.0927120998, |grad|=0.001072
C     -0.914436     0.072773     0.054625
C      0.511313    -0.415368    -0.133848
O      1.450101     0.392299     0.523333
H     -1.056077     1.057182    -0.402317
H     -1.625365    -0.615270    -0.409216
H     -1.151890     0.154913     1.116958
H      0.745290    -0.493003    -1.202147
H      0.625029    -1.412352     0.291947
H      1.417802     1.264718     0.159323
9
Iteration 7, Energy=-154.0927130209, |grad|=0.001141
C     -0.914533     0.072691     0.055056
C      0.511304    -0.415525    -0.133288
O      1.449921     0.392794     0.523485
H     -1.055526     1.057403    -0.401608
H     -1.625110    -0.614512    -0.410660
H     -1.152822     0.154369     1.117324
H      0.744493    -0.493328    -1.201689
H      0.626052    -1.412703     0.292028
H      1.417986     1.264703     0.158011
9
Iteration 8, Energy=-154.0927132124, |grad|=0.002401
C     -0.914849     0.072501     0.055246
C      0.511218    -0.415300    -0.132207
O      1.449664     0.393550     0.523394
H     -1.054848     1.057734    -0.399930
H     -1.624753    -0.613363    -0.412465
H     -1.153977     0.153135     1.117388
H      0.743933    -0.493959    -1.201622
H      0.627027    -1.412763     0.292710
H      1.418351     1.264356     0.156144
9
Iteration 0, Energy=-154.0926935373, |grad|=0.008712
C     -0.913709     0.072268     0.055420
C      0.511215    -0.416828    -0.133420
O      1.451859     0.393551     0.521823
H     -1.051635     1.059148    -0.398497
H     -1.626193    -0.615484    -0.411016
H     -1.158172     0.150909     1.116661
H      0.745903    -0.491600    -1.201448
H      0.623296    -1.410851     0.294390
H      1.417209     1.265572     0.153187
9
Iteration 1, Energy=-154.0927085530, |grad|=0.002907
C     -0.914764     0.072066     0.055861
C      0.510888    -0.415985    -0.132190
O      1.450329     0.393314     0.523717
H     -1.052407     1.056845    -0.401984
H     -1.625035    -0.614098    -0.410579
H     -1.156724     0.155162     1.117243
H      0.743132    -0.492102    -1.201691
H      0.627736    -1.413246     0.291637
H      1.417481     1.264240     0.155516
9
Iteration -1, Energy=-154.0927132124, |grad|=0.002401
C     -0.914849     0.072501     0.055246
C      0.511218    -0.415300    -0.132207
O      1.449664     0.393550     0.523394
H     -1.054848     1.057734    -0.399930
H     -1.624753    -0.613363    -0.412465
H     -1.153977     0.153135     1.117388
H      0.743933    -0.493959    -1.201622
H      0.627027    -1.412763     0.292710
H      1.418351     1.264356     0.156144
9
Iteration 0, Energy=-154.0927134472, |grad|=0.002110
C     -0.914827     0.072510     0.055266
C      0.511229    -0.415338    -0.132274
O      1.449673     0.393561     0.523407
H     -1.054852     1.057753    -0.399927
H     -1.624772    -0.613381    -0.412477
H     -1.153983     0.153125     1.117390
H      0.743931    -0.493957    -1.201585
H      0.627014    -1.412742     0.292720
H      1.418355     1.264361     0.156138
9
Iteration 0, Energy=-154.0927096748, |grad|=0.002979
C     -0.914247     0.072854     0.054573
C      0.511270    -0.415565    -0.134392
O      1.450171     0.391631     0.523390
H     -1.056414     1.056863    -0.403572
H     -1.625466    -0.615901    -0.408069
H     -1.151216     0.155852     1.116989
H      0.745489    -0.492520    -1.202062
H      0.624636    -1.412535     0.291321
H      1.417542     1.265119     0.160486
9
Iteration 1, Energy=-154.0927116254, |grad|=0.004749
C     -0.914891     0.072580     0.054862
C      0.511618    -0.415046    -0.132438
O      1.450002     0.394115     0.523429
H     -1.055275     1.058066    -0.399393
H     -1.625184    -0.613733    -0.412337
H     -1.153619     0.152739     1.117190
H      0.744530    -0.494280    -1.202346
H      0.626196    -1.412073     0.293306
H      1.418389     1.263703     0.156376
9
Iteration -1, Energy=-154.0927134472, |grad|=0.002110
C     -0.914827     0.072510     0.055266
C      0.511229    -0.415338    -0.132274
O      1.449673     0.393561     0.523407
H     -1.054852     1.057753    -0.399927
H     -1.624772    -0.613381    -0.412477
H     -1.153983     0.153125     1.117390
H      0.743931    -0.493957    -1.201585
H      0.627014    -1.412742     0.292720
H      1.418355     1.264361     0.156138
9
Iteration 0, Energy=-154.0927136483, |grad|=0.001834
C     -0.914806     0.072518     0.055284
C      0.511241    -0.415374    -0.132339
O      1.449682     0.393571     0.523420
H     -1.054858     1.057774    -0.399924
H     -1.624791    -0.613399    -0.412488
H     -1.153990     0.153113     1.117392
H      0.743929    -0.493957    -1.201549
H      0.626999    -1.412720     0.292731
H      1.418358     1.264366     0.156131
9
Iteration 0, Energy=-154.0927098566, |grad|=0.002824
C     -0.914315     0.072829     0.054515
C      0.511231    -0.415346    -0.134189
O      1.450143     0.391597     0.523315
H     -1.056399     1.056797    -0.403586
H     -1.625406    -0.615846    -0.408027
H     -1.151193     0.155892     1.116980
H      0.745495    -0.492521    -1.202175
H      0.624680    -1.412604     0.291284
H      1.417530     1.265104     0.160511
9
Iteration 1, Energy=-154.0927126043, |grad|=0.004188
C     -0.914782     0.072620     0.054953
C      0.511675    -0.415409    -0.132759
O      1.450045     0.394156     0.523550
H     -1.055300     1.058162    -0.399395
H     -1.625275    -0.613826    -0.412385
H     -1.153646     0.152695     1.117207
H      0.744519    -0.494268    -1.202165
H      0.626128    -1.411975     0.293348
H      1.418403     1.263736     0.156354
9
Iteration -1, Energy=-154.0927136483, |grad|=0.001834
C     -0.914806     0.072518     0.055284
C      0.511241    -0.415374    -0.132339
O      1.449682     0.393571     0.523420
H     -1.054858     1.057774    -0.399924
H     -1.624791    -0.613399    -0.412488
H     -1.153990     0.153113     1.117392
H      0.743929    -0.493957    -1.201549
H      0.626999    -1.412720     0.292731
H      1.418358     1.264366     0.156131
9
Iteration 0, Energy=-154.0927138282, |grad|=0.001559
C     -0.914783     0.072525     0.055300
C      0.511254    -0.415411    -0.132405
O      1.449691     0.393581     0.523432
H     -1.054863     1.057797    -0.399919
H     -1.624811    -0.613418    -0.412501
H     -1.153996     0.153099     1.117396
H      0.743930    -0.493956    -1.201514
H      0.626982    -1.412696     0.292745
H      1.418362     1.264372     0.156123
9
Iteration 0, Energy=-154.0927096620, |grad|=0.003069
C     -0.914389     0.072805     0.054465
C      0.511189    -0.415127    -0.133977
O      1.450114     0.391569     0.523245
H     -1.056379     1.056725    -0.403594
H     -1.625340    -0.615781    -0.407996
H     -1.151178     0.155931     1.116968
H      0.745492    -0.492525    -1.202287
H      0.624738    -1.412679     0.291246
H      1.417518     1.265084     0.160527
9
Iteration 1, Energy=-154.0927126511, |grad|=0.004229
C     -0.914668     0.072658     0.055030
C      0.511732    -0.415751    -0.133086
O      1.450086     0.394173     0.523655
H     -1.055336     1.058255    -0.399425
H     -1.625370    -0.613937    -0.412398
H     -1.153653     0.152669     1.117227
H      0.744523    -0.494245    -1.201991
H      0.626040    -1.411876     0.293380
H      1.418412     1.263782     0.156362
9
Iteration -1, Energy=-154.0927138282, |grad|=0.001559
C     -0.914783     0.072525     0.055300
C      0.511254    -0.415411    -0.132405
O      1.449691     0.393581     0.523432
H     -1.054863     1.057797    -0.399919
H     -1.624811    -0.613418    -0.412501
H     -1.153996     0.153099     1.117396
H      0.743930    -0.493956    -1.201514
H      0.626982    -1.412696     0.292745
H      1.418362     1.264372     0.156123
9
Iteration 0, Energy=-154.0927140078, |grad|=0.001251
C     -0.914755     0.072532     0.055317
C      0.511272    -0.415455    -0.132482
O      1.449701     0.393592     0.523445
H     -1.054870     1.057828    -0.399910
H     -1.624837    -0.613441    -0.412516
H     -1.154005     0.153078     1.117402
H      0.743932    -0.493957    -1.201473
H      0.626959    -1.412665     0.292763
H      1.418369     1.264379     0.156112
9
Iteration 0, Energy=-154.0927089572, |grad|=0.003744
C     -0.914480     0.072780     0.054418
C      0.511134    -0.414873    -0.133724
O      1.450080     0.391546     0.523172
H     -1.056346     1.056634    -0.403596
H     -1.625257    -0.615693    -0.407977
H     -1.151169     0.155976     1.116951
H      0.745476    -0.492533    -1.202411
H      0.624824    -1.412775     0.291198
H      1.417504     1.265057     0.160534
9
Iteration 1, Energy=-154.0927117147, |grad|=0.004880
C     -0.914535     0.072693     0.055095
C      0.511796    -0.416116    -0.133449
O      1.450131     0.394162     0.523754
H     -1.055390     1.058357    -0.399491
H     -1.625480    -0.614080    -0.412368
H     -1.153637     0.152658     1.117254
H      0.744549    -0.494205    -1.201809
H      0.625914    -1.411764     0.293405
H      1.418419     1.263848     0.156407
9
Iteration -1, Energy=-154.0927140078, |grad|=0.001251
C     -0.914755     0.072532     0.055317
C      0.511272    -0.415455    -0.132482
O      1.449701     0.393592     0.523445
H     -1.054870     1.057828    -0.399910
H     -1.624837    -0.613441    -0.412516
H     -1.154005     0.153078     1.117402
H      0.743932    -0.493957    -1.201473
H      0.626959    -1.412665     0.292763
H      1.418369     1.264379     0.156112
9
Iteration 0, Energy=-154.0927142470, |grad|=0.000778
C     -0.914701     0.072541     0.055338
C      0.511308    -0.415532    -0.132620
O      1.449718     0.393611     0.523465
H     -1.054886     1.057895    -0.399888
H     -1.624887    -0.613485    -0.412544
H     -1.154021     0.153030     1.117417
H      0.743944    -0.493961    -1.201402
H      0.626906    -1.412602     0.292806
H      1.418384     1.264395     0.156087
9
Iteration 0, Energy=-154.0927090154, |grad|=0.003536
C     -0.914533     0.072752     0.054330
C      0.511160    -0.415085    -0.133535
O      1.450045     0.391639     0.523265
H     -1.056181     1.056739    -0.403547
H     -1.625210    -0.615422    -0.407797
H     -1.150984     0.155920     1.116997
H      0.745306    -0.492567    -1.202532
H      0.625067    -1.412754     0.291352
H      1.417497     1.264927     0.160736
9
Iteration 1, Energy=-154.0927134173, |grad|=0.002894
C     -0.914495     0.072675     0.055387
C      0.511492    -0.415554    -0.133474
O      1.449990     0.393698     0.523477
H     -1.055458     1.057951    -0.399729
H     -1.625282    -0.614311    -0.412776
H     -1.154169     0.152903     1.117209
H      0.744593    -0.494021    -1.201347
H      0.625918    -1.412184     0.292877
H      1.418427     1.264369     0.155860
9
Iteration -1, Energy=-154.0927142470, |grad|=0.000778
C     -0.914701     0.072541     0.055338
C      0.511308    -0.415532    -0.132620
O      1.449718     0.393611     0.523465
H     -1.054886     1.057895    -0.399888
H     -1.624887    -0.613485    -0.412544
H     -1.154021     0.153030     1.117417
H      0.743944    -0.493961    -1.201402
H      0.626906    -1.412602     0.292806
H      1.418384     1.264395     0.156087
9
Iteration 0, Energy=-154.0927145041, |grad|=0.000815
C     -0.914577     0.072528     0.055304
C      0.511423    -0.415671    -0.132888
O      1.449749     0.393647     0.523466
H     -1.054937     1.058126    -0.399762
H     -1.625029    -0.613589    -0.412618
H     -1.154061     0.152817     1.117476
H      0.744047    -0.494002    -1.201296
H      0.626702    -1.412403     0.292988
H      1.418450     1.264439     0.155989
9
Iteration 0, Energy=-154.0927083890, |grad|=0.004048
C     -0.914616     0.072728     0.054357
C      0.511148    -0.415077    -0.133286
O      1.449998     0.391715     0.523303
H     -1.055996     1.056660    -0.403502
H     -1.625120    -0.615121    -0.407849
H     -1.150998     0.155955     1.117026
H      0.745101    -0.492594    -1.202606
H      0.625375    -1.412794     0.291334
H      1.417479     1.264835     0.160711
9
Iteration 1, Energy=-154.0927126240, |grad|=0.003732
C     -0.914426     0.072701     0.055334
C      0.511491    -0.415689    -0.133696
O      1.450036     0.393695     0.523471
H     -1.055650     1.058164    -0.399646
H     -1.625359    -0.614620    -0.412766
H     -1.154156     0.152720     1.117172
H      0.744803    -0.494046    -1.201256
H      0.625612    -1.412170     0.293030
H      1.418480     1.264428     0.155843
9
Iteration -1, Energy=-154.0927145041, |grad|=0.000815
C     -0.914577     0.072528     0.055304
C      0.511423    -0.415671    -0.132888
O      1.449749     0.393647     0.523466
H     -1.054937     1.058126    -0.399762
H     -1.625029    -0.613589    -0.412618
H     -1.154061     0.152817     1.117476
H      0.744047    -0.494002    -1.201296
H      0.626702    -1.412403     0.292988
H      1.418450     1.264439     0.155989
9
Iteration 0, Energy=-154.0927146762, |grad|=0.000783
C     -0.914685     0.072501     0.055186
C      0.511403    -0.415481    -0.132662
O      1.449732     0.393653     0.523359
H     -1.054947     1.058162    -0.399618
H     -1.625003    -0.613532    -0.412612
H     -1.154028     0.152649     1.117433
H      0.744191    -0.494076    -1.201482
H      0.626603    -1.412398     0.293117
H      1.418500     1.264413     0.155936
9
Iteration 0, Energy=-154.0927095235, |grad|=0.003115
C     -0.914512     0.072741     0.054378
C      0.511221    -0.415229    -0.133545
O      1.450033     0.391748     0.523342
H     -1.056024     1.056784    -0.403431
H     -1.625216    -0.615195    -0.407876
H     -1.151018     0.155864     1.117041
H      0.745119    -0.492602    -1.202482
H      0.625283    -1.412652     0.291431
H      1.417504     1.264842     0.160671
9
Iteration 1, Energy=-154.0927107093, |grad|=0.004968
C     -0.914348     0.072757     0.055217
C      0.511580    -0.415490    -0.134165
O      1.450205     0.393706     0.523360
H     -1.056103     1.058204    -0.399511
H     -1.625627    -0.615209    -0.412793
H     -1.154143     0.152558     1.116922
H      0.745481    -0.494117    -1.201458
H      0.624723    -1.411807     0.293171
H      1.418528     1.264397     0.155813
9
Iteration -1, Energy=-154.0927146762, |grad|=0.000783
C     -0.914685     0.072501     0.055186
C      0.511403    -0.415481    -0.132662
O      1.449732     0.393653     0.523359
H     -1.054947     1.058162    -0.399618
H     -1.625003    -0.613532    -0.412612
H     -1.154028     0.152649     1.117433
H      0.744191    -0.494076    -1.201482
H      0.626603    -1.412398     0.293117
H      1.418500     1.264413     0.155936
9
Iteration 0, Energy=-154.0927147712, |grad|=0.000521
C     -0.914675     0.072525     0.055215
C      0.511401    -0.415517    -0.132750
O      1.449750     0.393671     0.523374
H     -1.054958     1.058184    -0.399586
H     -1.625019    -0.613544    -0.412635
H     -1.154027     0.152603     1.117414
H      0.744207    -0.494091    -1.201437
H      0.626573    -1.412366     0.293152
H      1.418514     1.264426     0.155911
9
Iteration 0, Energy=-154.0927093358, |grad|=0.003348
C     -0.914529     0.072727     0.054398
C      0.511190    -0.415179    -0.133452
O      1.450012     0.391741     0.523331
H     -1.056026     1.056741    -0.403455
H     -1.625175    -0.615210    -0.407958
H     -1.151093     0.155907     1.117058
H      0.745092    -0.492595    -1.202479
H      0.625330    -1.412746     0.291356
H      1.417496     1.264857     0.160609
9
Iteration 1, Energy=-154.0927147716, |grad|=0.000521
C     -0.914675     0.072525     0.055215
C      0.511401    -0.415517    -0.132750
O      1.449750     0.393671     0.523374
H     -1.054958     1.058184    -0.399586
H     -1.625020    -0.613544    -0.412635
H     -1.154027     0.152603     1.117415
H      0.744207    -0.494091    -1.201437
H      0.626572    -1.412366     0.293152
H      1.418514     1.264426     0.155911
9
Iteration -1, Energy=-154.0927147716, |grad|=0.000521
C     -0.914675     0.072525     0.055215
C      0.511401    -0.415517    -0.132750
O      1.449750     0.393671     0.523374
H     -1.054958     1.058184    -0.399586
H     -1.625020    -0.613544    -0.412635
H     -1.154027     0.152603     1.117415
H      0.744207    -0.494091    -1.201437
H      0.626572    -1.412366     0.293152
H      1.418514     1.264426     0.155911
9
Iteration 0, Energy=-154.0927149665, |grad|=0.000809
C     -0.914646     0.072575     0.055222
C      0.511396    -0.415601    -0.132983
O      1.449800     0.393736     0.523370
H     -1.055028     1.058332    -0.399369
H     -1.625074    -0.613549    -0.412744
H     -1.154021     0.152308     1.117366
H      0.744348    -0.494198    -1.201325
H      0.626381    -1.412193     0.293358
H      1.418609     1.264481     0.155762
9
Iteration 0, Energy=-154.0927094315, |grad|=0.003427
C     -0.914524     0.072681     0.054478
C      0.511211    -0.415170    -0.133298
O      1.449961     0.391812     0.523350
H     -1.055930     1.056729    -0.403391
H     -1.625136    -0.615167    -0.408226
H     -1.151338     0.155941     1.117131
H      0.744919    -0.492595    -1.202433
H      0.625541    -1.412871     0.291280
H      1.417485     1.264809     0.160383
9
Iteration 1, Energy=-154.0927149663, |grad|=0.000810
C     -0.914646     0.072575     0.055222
C      0.511396    -0.415601    -0.132983
O      1.449800     0.393736     0.523370
H     -1.055028     1.058332    -0.399369
H     -1.625074    -0.613549    -0.412744
H     -1.154021     0.152308     1.117366
H      0.744348    -0.494198    -1.201325
H      0.626381    -1.412193     0.293358
H      1.418609     1.264481     0.155762
9
Iteration -1, Energy=-154.0927149665, |grad|=0.000809
C     -0.914646     0.072575     0.055222
C      0.511396    -0.415601    -0.132983
O      1.449800     0.393736     0.523370
H     -1.055028     1.058332    -0.399369
H     -1.625074    -0.613549    -0.412744
H     -1.154021     0.152308     1.117366
H      0.744348    -0.494198    -1.201325
H      0.626381    -1.412193     0.293358
H      1.418609     1.264481     0.155762
9
Iteration 0, Energy=-154.0927151031, |grad|=0.000474
C     -0.914677     0.072525     0.055122
C      0.511402    -0.415489    -0.132801
O      1.449759     0.393735     0.523289
H     -1.055046     1.058370    -0.399298
H     -1.625053    -0.613499    -0.412757
H     -1.154012     0.152222     1.117388
H      0.744412    -0.494247    -1.201427
H      0.626337    -1.412188     0.293411
H      1.418642     1.264463     0.155730
9
Iteration 0, Energy=-154.0927102707, |grad|=0.002513
C     -0.914489     0.072739     0.054616
C      0.511207    -0.415315    -0.133512
O      1.450008     0.391856     0.523448
H     -1.055888     1.056719    -0.403387
H     -1.625161    -0.615192    -0.408313
H     -1.151411     0.155963     1.117110
H      0.744828    -0.492571    -1.202284
H      0.625614    -1.412862     0.291263
H      1.417471     1.264824     0.160318
9
Iteration 1, Energy=-154.0927151031, |grad|=0.000474
C     -0.914676     0.072525     0.055122
C      0.511402    -0.415489    -0.132801
O      1.449759     0.393735     0.523289
H     -1.055046     1.058370    -0.399298
H     -1.625053    -0.613499    -0.412757
H     -1.154012     0.152222     1.117388
H      0.744412    -0.494247    -1.201427
H      0.626337    -1.412188     0.293411
H      1.418642     1.264463     0.155730
