9
Iteration -1, Energy=-154.0837996503, |grad|=0.044117
C     -0.977020     0.054531     0.039344
C      0.487693    -0.332548    -0.192952
O      1.302254     0.336299     0.743792
H     -1.353582     0.729531    -0.729129
H     -1.591671    -0.850511     0.025441
H     -1.069217     0.581118     0.999619
H      0.788253    -0.138478    -1.230198
H      0.594696    -1.412625    -0.042175
H      1.818594     1.032682     0.386258
9
Iteration 0, Energy=-154.0843833249, |grad|=0.059413
C     -0.977280     0.053879     0.035312
C      0.484312    -0.325026    -0.187773
O      1.305233     0.320355     0.751886
H     -1.354690     0.731318    -0.731808
H     -1.597106    -0.844075     0.028915
H     -1.069673     0.569254     0.994917
H      0.790027    -0.136048    -1.225589
H      0.600639    -1.406722    -0.038040
H      1.818537     1.037066     0.372179
9
Iteration 1, Energy=-154.0849708820, |grad|=0.035094
C     -0.978177     0.054365     0.032267
C      0.483032    -0.324225    -0.185418
O      1.313796     0.319380     0.752837
H     -1.355398     0.732475    -0.733440
H     -1.600947    -0.840538     0.030813
H     -1.070298     0.562238     0.992956
H      0.791269    -0.133974    -1.221992
H      0.603824    -1.402234    -0.035695
H      1.812900     1.032512     0.367673
9
Iteration 2, Energy=-154.0855525641, |grad|=0.015882
C     -0.980572     0.055962     0.025149
C      0.485382    -0.322798    -0.179253
O      1.331056     0.312521     0.753421
H     -1.357325     0.736354    -0.738314
H     -1.612045    -0.832437     0.034509
H     -1.072982     0.545639     0.990668
H      0.794820    -0.127776    -1.211446
H      0.611494    -1.392164    -0.028851
H      1.800172     1.024698     0.354117
9
Iteration 3, Energy=-154.0857041185, |grad|=0.012918
C     -0.979866     0.055951     0.024226
C      0.487718    -0.323802    -0.177507
O      1.336536     0.309057     0.751367
H     -1.357812     0.739262    -0.740843
H     -1.617745    -0.830150     0.033355
H     -1.075975     0.541528     0.993742
H      0.798074    -0.123818    -1.206927
H      0.613990    -1.392890    -0.024920
H      1.795081     1.024862     0.347508
9
Iteration 4, Energy=-154.0858879114, |grad|=0.019755
C     -0.984349     0.059975     0.025899
C      0.492191    -0.332712    -0.172545
O      1.350274     0.301923     0.745186
H     -1.353411     0.743306    -0.740109
H     -1.629306    -0.822421     0.024813
H     -1.085134     0.532524     1.000771
H      0.809041    -0.114233    -1.198539
H      0.618760    -1.399964    -0.015309
H      1.781934     1.031603     0.329834
9
Iteration 0, Energy=-154.0378396116, |grad|=0.558825
C     -0.905691     0.116632     0.039997
C      0.578310    -0.366860    -0.179545
O      1.268780     0.271992     0.679680
H     -1.368089     0.650752    -0.829576
H     -1.586276    -0.793072     0.082127
H     -1.142159     0.512822     0.921933
H      0.749537    -0.122233    -1.212013
H      0.669900    -1.370585     0.010389
H      1.871588     1.014980     0.469821
9
Iteration -1, Energy=-154.0858879114, |grad|=0.019755
C     -0.984349     0.059975     0.025899
C      0.492191    -0.332712    -0.172545
O      1.350274     0.301923     0.745186
H     -1.353411     0.743306    -0.740109
H     -1.629306    -0.822421     0.024813
H     -1.085134     0.532524     1.000771
H      0.809041    -0.114233    -1.198539
H      0.618760    -1.399964    -0.015309
H      1.781934     1.031603     0.329834
9
Iteration 0, Energy=-154.0859565451, |grad|=0.009760
C     -0.981954     0.057697     0.026682
C      0.490914    -0.330743    -0.173223
O      1.350611     0.302731     0.744626
H     -1.352888     0.744321    -0.739948
H     -1.629267    -0.822193     0.023716
H     -1.085654     0.533271     1.001545
H      0.808783    -0.115457    -1.198207
H      0.618427    -1.401522    -0.015309
H      1.781028     1.031895     0.330117
9
Iteration 1, Energy=-154.0859975546, |grad|=0.009758
C     -0.979824     0.056415     0.027604
C      0.490388    -0.330369    -0.173284
O      1.350379     0.303304     0.743840
H     -1.351326     0.745188    -0.738538
H     -1.629111    -0.822165     0.021705
H     -1.086398     0.534042     1.002367
H      0.808331    -0.117405    -1.198184
H      0.617654    -1.402515    -0.015595
H      1.779906     1.033506     0.330084
9
Iteration 2, Energy=-154.0860846868, |grad|=0.014129
C     -0.976153     0.054511     0.030372
C      0.490270    -0.331176    -0.173151
O      1.350274     0.305554     0.741346
H     -1.345762     0.747466    -0.733449
H     -1.628222    -0.821957     0.015372
H     -1.088386     0.535496     1.004344
H      0.806840    -0.123462    -1.198516
H      0.615292    -1.404803    -0.016344
H      1.775846     1.038371     0.330025
9
Iteration 3, Energy=-154.0861938558, |grad|=0.019303
C     -0.972940     0.053201     0.034639
C      0.490891    -0.333048    -0.171924
O      1.350322     0.306741     0.738365
H     -1.335240     0.752593    -0.724820
H     -1.626393    -0.821279     0.004225
H     -1.091206     0.535669     1.007862
H      0.804117    -0.134328    -1.200232
H      0.612077    -1.408864    -0.016150
H      1.768372     1.049314     0.328034
9
Iteration 4, Energy=-154.0863281009, |grad|=0.019805
C     -0.969211     0.053445     0.040207
C      0.491693    -0.339449    -0.169597
O      1.355035     0.312665     0.731446
H     -1.317962     0.762525    -0.711517
H     -1.623841    -0.820179    -0.013760
H     -1.095249     0.533216     1.014150
H      0.799524    -0.151887    -1.203281
H      0.607655    -1.413863    -0.014183
H      1.752356     1.063527     0.326535
9
Iteration 0, Energy=-154.0233734980, |grad|=0.535829
C     -1.005000     0.094681     0.010639
C      0.388172    -0.221760    -0.105019
O      1.307628     0.298878     0.653335
H     -1.328726     0.667583    -0.748664
H     -1.671809    -0.808737     0.107523
H     -1.040348     0.519658     0.987509
H      0.860095    -0.209912    -1.318353
H      0.613456    -1.345846     0.026039
H      1.879443     0.948677     0.384185
9
Iteration -1, Energy=-154.0863281009, |grad|=0.019805
C     -0.969211     0.053445     0.040207
C      0.491693    -0.339449    -0.169597
O      1.355035     0.312665     0.731446
H     -1.317962     0.762525    -0.711517
H     -1.623841    -0.820179    -0.013760
H     -1.095249     0.533216     1.014150
H      0.799524    -0.151887    -1.203281
H      0.607655    -1.413863    -0.014183
H      1.752356     1.063527     0.326535
9
Iteration 0, Energy=-154.0864181960, |grad|=0.026360
C     -0.973739     0.056865     0.038188
C      0.494543    -0.340611    -0.168995
O      1.355158     0.306477     0.732479
H     -1.317796     0.765164    -0.713003
H     -1.624087    -0.818925    -0.013094
H     -1.093940     0.527729     1.014485
H      0.798953    -0.151692    -1.203085
H      0.609709    -1.412197    -0.010183
H      1.751199     1.067189     0.323207
9
Iteration 1, Energy=-154.0865155175, |grad|=0.015555
C     -0.973881     0.057293     0.037266
C      0.493912    -0.340773    -0.168957
O      1.357492     0.307167     0.731519
H     -1.317993     0.766916    -0.714035
H     -1.624502    -0.818362    -0.012978
H     -1.093511     0.525440     1.015058
H      0.798879    -0.151702    -1.203036
H      0.610589    -1.411990    -0.008274
H      1.749015     1.066010     0.323436
9
Iteration 2, Energy=-154.0866646141, |grad|=0.011495
C     -0.974536     0.059362     0.033651
C      0.492651    -0.340910    -0.168521
O      1.364038     0.305325     0.729015
H     -1.318572     0.773902    -0.717738
H     -1.626277    -0.815959    -0.012843
H     -1.091780     0.515979     1.017321
H      0.798483    -0.152027    -1.202738
H      0.614096    -1.411021    -0.000242
H      1.741897     1.065348     0.322096
9
Iteration 3, Energy=-154.0867353348, |grad|=0.010806
C     -0.973285     0.060468     0.031431
C      0.492074    -0.341193    -0.168263
O      1.367653     0.302363     0.726813
H     -1.318528     0.779122    -0.719068
H     -1.628001    -0.813683    -0.014200
H     -1.090764     0.508984     1.019219
H      0.798318    -0.153245    -1.202371
H      0.615989    -1.410325     0.006137
H      1.736543     1.067510     0.320302
9
Iteration 4, Energy=-154.0868700267, |grad|=0.014273
C     -0.972566     0.063465     0.028121
C      0.494287    -0.344635    -0.168175
O      1.375511     0.297910     0.719619
H     -1.315762     0.789286    -0.716611
H     -1.631209    -0.806684    -0.021327
H     -1.088682     0.493734     1.023014
H      0.798302    -0.158928    -1.201944
H      0.617708    -1.408978     0.020301
H      1.722409     1.074830     0.317002
9
Iteration 0, Energy=-154.0288861050, |grad|=0.567559
C     -0.907581     0.011799    -0.027202
C      0.418050    -0.263270    -0.136140
O      1.282953     0.246014     0.803195
H     -1.290575     0.717597    -0.688289
H     -1.640572    -0.887628    -0.030312
H     -1.031837     0.540945     0.989974
H      0.697730    -0.232129    -1.238661
H      0.530638    -1.338504    -0.114784
H      1.787625     1.069062     0.348033
9
Iteration -1, Energy=-154.0868700267, |grad|=0.014273
C     -0.972566     0.063465     0.028121
C      0.494287    -0.344635    -0.168175
O      1.375511     0.297910     0.719619
H     -1.315762     0.789286    -0.716611
H     -1.631209    -0.806684    -0.021327
H     -1.088682     0.493734     1.023014
H      0.798302    -0.158928    -1.201944
H      0.617708    -1.408978     0.020301
H      1.722409     1.074830     0.317002
9
Iteration 0, Energy=-154.0869499029, |grad|=0.023998
C     -0.968993     0.061177     0.031068
C      0.493342    -0.343214    -0.168027
O      1.373605     0.296820     0.719891
H     -1.313116     0.789536    -0.711749
H     -1.631514    -0.806235    -0.026696
H     -1.089309     0.495670     1.023827
H      0.799216    -0.163435    -1.203842
H      0.615076    -1.412188     0.019855
H      1.721693     1.081869     0.315673
9
Iteration 1, Energy=-154.0870470516, |grad|=0.014857
C     -0.968112     0.060579     0.032380
C      0.493525    -0.344457    -0.168165
O      1.374200     0.299612     0.718543
H     -1.311215     0.789670    -0.708464
H     -1.631466    -0.805879    -0.030021
H     -1.089599     0.496555     1.024486
H      0.799602    -0.166283    -1.204701
H      0.613318    -1.413178     0.019466
H      1.719746     1.083381     0.316477
9
Iteration 2, Energy=-154.0871875099, |grad|=0.010650
C     -0.966246     0.059010     0.036431
C      0.495713    -0.348312    -0.168611
O      1.374861     0.305733     0.714565
H     -1.304411     0.791170    -0.697606
H     -1.631097    -0.804536    -0.041338
H     -1.090355     0.498555     1.027139
H      0.800426    -0.176559    -1.207021
H      0.607806    -1.416164     0.018845
H      1.713302     1.091103     0.317597
9
Iteration 3, Energy=-154.0872659718, |grad|=0.012421
C     -0.965389     0.058629     0.037743
C      0.496659    -0.349725    -0.168514
O      1.375982     0.307265     0.711926
H     -1.300358     0.795071    -0.693142
H     -1.630832    -0.803715    -0.047396
H     -1.090306     0.497026     1.029523
H      0.800216    -0.183171    -1.207667
H      0.606159    -1.417517     0.020266
H      1.707869     1.096137     0.317261
9
Iteration 4, Energy=-154.0879345582, |grad|=0.032345
C     -0.954722     0.062880     0.046477
C      0.500140    -0.367773    -0.163690
O      1.393081     0.317854     0.683295
H     -1.255817     0.842707    -0.647501
H     -1.628484    -0.793125    -0.110495
H     -1.088388     0.468120     1.054424
H      0.796905    -0.253316    -1.216482
H      0.594281    -1.429024     0.043693
H      1.643003     1.151677     0.310279
9
Iteration 0, Energy=-153.9790646571, |grad|=0.809040
C     -0.865664     0.123479     0.110167
C      0.398538    -0.232113    -0.272830
O      1.218182     0.382065     0.820558
H     -1.368101     0.703938    -0.657613
H     -1.541745    -0.798655     0.079909
H     -0.980779     0.499454     0.949714
H      0.817278    -0.212414    -1.161160
H      0.598933    -1.456857    -0.062353
H      1.882569     1.146850     0.436147
9
Iteration -1, Energy=-154.0879345582, |grad|=0.032345
C     -0.954722     0.062880     0.046477
C      0.500140    -0.367773    -0.163690
O      1.393081     0.317854     0.683295
H     -1.255817     0.842707    -0.647501
H     -1.628484    -0.793125    -0.110495
H     -1.088388     0.468120     1.054424
H      0.796905    -0.253316    -1.216482
H      0.594281    -1.429024     0.043693
H      1.643003     1.151677     0.310279
9
Iteration 0, Energy=-154.0882287152, |grad|=0.026992
C     -0.955042     0.058919     0.044642
C      0.499888    -0.360733    -0.166618
O      1.394771     0.314746     0.681468
H     -1.256325     0.846982    -0.650912
H     -1.626830    -0.787294    -0.108110
H     -1.088065     0.461721     1.053907
H      0.794944    -0.252255    -1.213839
H      0.597679    -1.430832     0.050250
H      1.638980     1.148746     0.309212
9
Iteration 1, Energy=-154.0884518122, |grad|=0.021363
C     -0.954425     0.061247     0.041988
C      0.499606    -0.361499    -0.166045
O      1.396366     0.312239     0.679577
H     -1.256471     0.849500    -0.652612
H     -1.626912    -0.784205    -0.106511
H     -1.087699     0.455006     1.053214
H      0.793591    -0.250600    -1.213385
H      0.600617    -1.428630     0.055618
H      1.635327     1.146943     0.308156
9
Iteration 2, Energy=-154.0886885192, |grad|=0.037733
C     -0.949261     0.069988     0.034862
C      0.499791    -0.367100    -0.167530
O      1.405068     0.299324     0.676932
H     -1.255072     0.863129    -0.658373
H     -1.632055    -0.775026    -0.106852
H     -1.086270     0.429078     1.055204
H      0.788476    -0.247342    -1.214059
H      0.609943    -1.421958     0.079466
H      1.619380     1.149906     0.300350
9
Iteration 3, Energy=-154.0888259896, |grad|=0.025512
C     -0.950662     0.071295     0.032129
C      0.500717    -0.369413    -0.164719
O      1.409283     0.305612     0.670332
H     -1.253285     0.865990    -0.657554
H     -1.632507    -0.771148    -0.108567
H     -1.085546     0.422696     1.056323
H      0.787878    -0.247726    -1.215650
H      0.611295    -1.421020     0.085080
H      1.612826     1.143714     0.302626
9
Iteration 4, Energy=-154.0889089519, |grad|=0.010397
C     -0.951083     0.069786     0.034125
C      0.501060    -0.368089    -0.164991
O      1.407199     0.304803     0.671862
H     -1.252947     0.864174    -0.656014
H     -1.632240    -0.772877    -0.109783
H     -1.085762     0.426912     1.056371
H      0.788738    -0.249177    -1.215591
H      0.609459    -1.422589     0.081614
H      1.615575     1.147057     0.302407
9
Iteration 0, Energy=-154.0026241341, |grad|=0.940170
C     -0.987446    -0.002233     0.093549
C      0.516310    -0.296105    -0.092500
O      1.207489     0.302553     0.653548
H     -1.265485     0.732010    -0.699740
H     -1.544483    -0.955039    -0.006425
H     -1.127640     0.574493     1.083158
H      0.740205    -0.172148    -1.320418
H      0.546382    -1.437068     0.011177
H      1.765924     1.139959     0.428676
9
Iteration -1, Energy=-154.0889089519, |grad|=0.010397
C     -0.951083     0.069786     0.034125
C      0.501060    -0.368089    -0.164991
O      1.407199     0.304803     0.671862
H     -1.252947     0.864174    -0.656014
H     -1.632240    -0.772877    -0.109783
H     -1.085762     0.426912     1.056371
H      0.788738    -0.249177    -1.215591
H      0.609459    -1.422589     0.081614
H      1.615575     1.147057     0.302407
9
Iteration 0, Energy=-154.0889789616, |grad|=0.022953
C     -0.951175     0.067619     0.036628
C      0.501645    -0.366182    -0.164979
O      1.406460     0.303759     0.668775
H     -1.248757     0.865263    -0.650395
H     -1.632442    -0.770739    -0.116483
H     -1.085485     0.426264     1.057394
H      0.789216    -0.255176    -1.215097
H      0.607631    -1.425150     0.082848
H      1.612908     1.154341     0.301308
9
Iteration 1, Energy=-154.0890799686, |grad|=0.016298
C     -0.950622     0.066903     0.037904
C      0.501357    -0.367366    -0.164720
O      1.407400     0.306531     0.665806
H     -1.245694     0.866364    -0.646220
H     -1.632887    -0.769578    -0.121505
H     -1.085383     0.425494     1.058562
H      0.789533    -0.259518    -1.215138
H      0.606237    -1.425909     0.083631
H      1.610058     1.157079     0.301681
9
Iteration 2, Energy=-154.0893279354, |grad|=0.015040
C     -0.946837     0.064367     0.042812
C      0.500718    -0.374148    -0.163542
O      1.411823     0.316111     0.653885
H     -1.231153     0.874117    -0.627317
H     -1.635413    -0.764325    -0.145274
H     -1.085197     0.419944     1.065353
H      0.790083    -0.280588    -1.215930
H      0.600491    -1.428371     0.088836
H      1.595486     1.172894     0.301179
9
Iteration 3, Energy=-154.0895194540, |grad|=0.020307
C     -0.944589     0.062727     0.044954
C      0.502229    -0.376885    -0.163430
O      1.416292     0.321893     0.645716
H     -1.220267     0.884667    -0.615524
H     -1.636463    -0.758938    -0.161663
H     -1.085310     0.411287     1.071139
H      0.788550    -0.296744    -1.217055
H      0.598500    -1.430909     0.096498
H      1.581058     1.182902     0.299365
9
Iteration 4, Energy=-154.0902686462, |grad|=0.035122
C     -0.930943     0.062666     0.052642
C      0.510630    -0.396736    -0.158150
O      1.440755     0.346467     0.600617
H     -1.159279     0.946921    -0.550861
H     -1.641367    -0.727735    -0.250054
H     -1.086309     0.353872     1.101761
H      0.778113    -0.385076    -1.225996
H      0.592104    -1.440291     0.144449
H      1.496295     1.239912     0.285592
9
Iteration 0, Energy=-154.0516522422, |grad|=0.372485
C     -0.944226     0.030911     0.096976
C      0.459957    -0.323523    -0.218238
O      1.350762     0.394783     0.706080
H     -1.294510     0.668954    -0.787460
H     -1.581419    -0.944065     0.120833
H     -1.150485     0.507270     1.104881
H      0.756386    -0.061501    -1.259380
H      0.513573    -1.526047    -0.007739
H      1.749019     1.120280     0.387315
9
Iteration -1, Energy=-154.0902686462, |grad|=0.035122
C     -0.930943     0.062666     0.052642
C      0.510630    -0.396736    -0.158150
O      1.440755     0.346467     0.600617
H     -1.159279     0.946921    -0.550861
H     -1.641367    -0.727735    -0.250054
H     -1.086309     0.353872     1.101761
H      0.778113    -0.385076    -1.225996
H      0.592104    -1.440291     0.144449
H      1.496295     1.239912     0.285592
9
Iteration 0, Energy=-154.0908939526, |grad|=0.027020
C     -0.933232     0.067181     0.047306
C      0.510518    -0.391851    -0.160443
O      1.436716     0.339868     0.595994
H     -1.158590     0.947621    -0.551236
H     -1.633798    -0.717626    -0.242212
H     -1.087198     0.341715     1.094880
H      0.774675    -0.381509    -1.221426
H      0.599723    -1.437524     0.153597
H      1.491186     1.232126     0.283540
9
Iteration 1, Energy=-154.0912333381, |grad|=0.015511
C     -0.926080     0.073231     0.043692
C      0.504732    -0.395801    -0.158627
O      1.435607     0.335098     0.593327
H     -1.159289     0.953370    -0.554476
H     -1.630182    -0.710925    -0.235930
H     -1.088985     0.327343     1.089327
H      0.771489    -0.376780    -1.221184
H      0.608039    -1.429416     0.163406
H      1.484668     1.223881     0.280465
9
Iteration 2, Energy=-154.0913111146, |grad|=0.016609
C     -0.924448     0.073822     0.041918
C      0.506836    -0.395474    -0.160338
O      1.437163     0.330947     0.595295
H     -1.158840     0.959375    -0.557004
H     -1.631017    -0.709660    -0.235817
H     -1.090097     0.321346     1.091473
H      0.769013    -0.375679    -1.222102
H      0.610782    -1.428523     0.169787
H      1.480608     1.223847     0.276789
9
Iteration 3, Energy=-154.0913631954, |grad|=0.007699
C     -0.925039     0.074586     0.041549
C      0.508577    -0.396338    -0.160122
O      1.438637     0.333040     0.595176
H     -1.157998     0.961579    -0.557243
H     -1.632048    -0.709726    -0.237197
H     -1.090348     0.319246     1.093022
H      0.768261    -0.375770    -1.223462
H      0.611109    -1.428654     0.172122
H      1.478849     1.222036     0.276156
9
Iteration 4, Energy=-154.0913906250, |grad|=0.007264
C     -0.925764     0.075410     0.041692
C      0.509873    -0.397021    -0.159112
O      1.439982     0.334168     0.594717
H     -1.156555     0.963415    -0.556566
H     -1.633097    -0.709472    -0.239492
H     -1.090497     0.316915     1.094215
H      0.767779    -0.376344    -1.224978
H      0.611281    -1.428923     0.174544
H      1.476999     1.221852     0.274979
9
Iteration 0, Energy=-153.9728903695, |grad|=1.135419
C     -0.873905    -0.013351     0.033506
C      0.473841    -0.266760    -0.157624
O      1.272977     0.394870     0.644680
H     -1.296627     0.651564    -0.825683
H     -1.657298    -0.956679    -0.018570
H     -1.044444     0.693212     0.920346
H      0.801861    -0.173801    -1.313756
H      0.501642    -1.377992    -0.136052
H      1.760618     0.959446     0.453595
9
Iteration -1, Energy=-154.0913906250, |grad|=0.007264
C     -0.925764     0.075410     0.041692
C      0.509873    -0.397021    -0.159112
O      1.439982     0.334168     0.594717
H     -1.156555     0.963415    -0.556566
H     -1.633097    -0.709472    -0.239492
H     -1.090497     0.316915     1.094215
H      0.767779    -0.376344    -1.224978
H      0.611281    -1.428923     0.174544
H      1.476999     1.221852     0.274979
9
Iteration 0, Energy=-154.0914223721, |grad|=0.016537
C     -0.925512     0.074006     0.043306
C      0.507270    -0.396375    -0.158457
O      1.440202     0.333119     0.592075
H     -1.153180     0.963134    -0.551954
H     -1.632666    -0.706509    -0.244295
H     -1.090637     0.314645     1.093524
H      0.768164    -0.379115    -1.223442
H      0.610880    -1.429494     0.176399
H      1.475479     1.226588     0.272845
9
Iteration 1, Energy=-154.0914682519, |grad|=0.010123
C     -0.925383     0.073590     0.043722
C      0.506650    -0.397213    -0.158079
O      1.440525     0.335323     0.589904
H     -1.151270     0.963383    -0.549392
H     -1.632689    -0.705111    -0.247164
H     -1.090890     0.313242     1.093838
H      0.768125    -0.380740    -1.222661
H      0.610502    -1.429406     0.177405
H      1.474429     1.226931     0.272427
9
Iteration 2, Energy=-154.0915478200, |grad|=0.012005
C     -0.924740     0.072058     0.045060
C      0.505831    -0.399422    -0.156831
O      1.441327     0.340472     0.583282
H     -1.144579     0.965303    -0.540778
H     -1.633159    -0.700525    -0.257405
H     -1.092024     0.307969     1.095642
H      0.767594    -0.386736    -1.220223
H      0.609334    -1.429281     0.181429
H      1.470416     1.230162     0.269824
9
Iteration 3, Energy=-154.0916355192, |grad|=0.016723
C     -0.923616     0.070309     0.046588
C      0.506387    -0.401682    -0.155424
O      1.442517     0.345581     0.576380
H     -1.136330     0.969761    -0.530830
H     -1.634284    -0.695349    -0.270260
H     -1.093903     0.300493     1.098874
H      0.766289    -0.394699    -1.218190
H      0.608294    -1.429363     0.187317
H      1.464648     1.234948     0.265544
9
Iteration 4, Energy=-154.0918804800, |grad|=0.023599
C     -0.920526     0.066664     0.050879
C      0.508543    -0.407814    -0.150843
O      1.447672     0.360003     0.558048
H     -1.110604     0.987488    -0.500843
H     -1.637172    -0.678949    -0.309264
H     -1.100735     0.273690     1.108883
H      0.761173    -0.420669    -1.215171
H      0.607219    -1.430027     0.208118
H      1.444430     1.249615     0.250191
9
Iteration 0, Energy=-154.0032220312, |grad|=0.761512
C     -0.858593     0.122130     0.017464
C      0.418118    -0.256762    -0.100554
O      1.235131     0.297080     0.678204
H     -1.419474     0.775462    -0.793239
H     -1.577005    -0.914316     0.000726
H     -1.155885     0.516133     1.053357
H      0.708909    -0.171601    -1.188072
H      0.511910    -1.345413    -0.142987
H      1.782522     1.010707     0.309458
9
Iteration -1, Energy=-154.0918804800, |grad|=0.023599
C     -0.920526     0.066664     0.050879
C      0.508543    -0.407814    -0.150843
O      1.447672     0.360003     0.558048
H     -1.110604     0.987488    -0.500843
H     -1.637172    -0.678949    -0.309264
H     -1.100735     0.273690     1.108883
H      0.761173    -0.420669    -1.215171
H      0.607219    -1.430027     0.208118
H      1.444430     1.249615     0.250191
9
Iteration 0, Energy=-154.0919655475, |grad|=0.018392
C     -0.920668     0.067471     0.050497
C      0.509466    -0.405858    -0.151157
O      1.447449     0.354767     0.560641
H     -1.110778     0.989854    -0.501539
H     -1.636345    -0.678328    -0.308027
H     -1.101478     0.271399     1.108441
H      0.760368    -0.421364    -1.216509
H      0.608922    -1.430272     0.209891
H      1.443064     1.252332     0.247761
9
Iteration 1, Energy=-154.0920162391, |grad|=0.012822
C     -0.920519     0.068365     0.050103
C      0.509630    -0.406128    -0.151242
O      1.447571     0.355560     0.561088
H     -1.110898     0.991192    -0.501804
H     -1.635899    -0.678034    -0.307374
H     -1.101975     0.269956     1.108252
H      0.759909    -0.421716    -1.217278
H      0.609825    -1.429933     0.210717
H      1.442357     1.250737     0.247537
9
Iteration 2, Energy=-154.0921305251, |grad|=0.006788
C     -0.919334     0.073102     0.047828
C      0.510904    -0.406817    -0.151620
O      1.447490     0.356195     0.563792
H     -1.111442     0.998607    -0.502908
H     -1.633454    -0.676234    -0.304077
H     -1.104811     0.261859     1.107288
H      0.757374    -0.423821    -1.220910
H      0.614910    -1.427953     0.215495
H      1.438363     1.245061     0.245113
9
Iteration 3, Energy=-154.0921535091, |grad|=0.004914
C     -0.918131     0.074295     0.047086
C      0.511057    -0.407189    -0.151788
O      1.446644     0.355414     0.563276
H     -1.111176     1.001420    -0.502027
H     -1.632466    -0.674906    -0.304091
H     -1.106052     0.258399     1.106929
H      0.756616    -0.425086    -1.220615
H      0.616687    -1.426657     0.217602
H      1.436820     1.244310     0.243629
9
Iteration 4, Energy=-154.0921869467, |grad|=0.005945
C     -0.917679     0.075444     0.046422
C      0.510520    -0.406914    -0.151401
O      1.446229     0.355150     0.561198
H     -1.109340     1.006018    -0.498128
H     -1.630605    -0.671454    -0.306701
H     -1.108044     0.251698     1.106258
H      0.755917    -0.428574    -1.220121
H      0.619193    -1.425472     0.222232
H      1.433809     1.244106     0.240242
9
Iteration 0, Energy=-154.0516460191, |grad|=0.389001
C     -1.021384    -0.003457     0.002626
C      0.532927    -0.339616    -0.235805
O      1.257476     0.402928     0.660464
H     -1.415540     0.641891    -0.807653
H     -1.505300    -0.910209    -0.016854
H     -1.033881     0.604125     0.937609
H      0.754766    -0.068370    -1.177490
H      0.586444    -1.373220    -0.139494
H      1.799610     1.093851     0.487704
9
Iteration -1, Energy=-154.0921869467, |grad|=0.005945
C     -0.917679     0.075444     0.046422
C      0.510520    -0.406914    -0.151401
O      1.446229     0.355150     0.561198
H     -1.109340     1.006018    -0.498128
H     -1.630605    -0.671454    -0.306701
H     -1.108044     0.251698     1.106258
H      0.755917    -0.428574    -1.220121
H      0.619193    -1.425472     0.222232
H      1.433809     1.244106     0.240242
9
Iteration 0, Energy=-154.0922042526, |grad|=0.008397
C     -0.917227     0.075589     0.047145
C      0.510715    -0.408954    -0.151079
O      1.447089     0.357086     0.560208
H     -1.108316     1.005871    -0.496100
H     -1.631910    -0.671735    -0.309939
H     -1.108223     0.251453     1.107308
H      0.756138    -0.429584    -1.219645
H      0.617968    -1.424999     0.222409
H      1.433767     1.245274     0.239692
9
Iteration 1, Energy=-154.0922236261, |grad|=0.006312
C     -0.917371     0.074554     0.047635
C      0.510987    -0.408882    -0.150871
O      1.447635     0.357661     0.559337
H     -1.107262     1.006084    -0.494296
H     -1.632527    -0.671258    -0.312635
H     -1.108401     0.251059     1.108187
H      0.756312    -0.430721    -1.219209
H      0.617057    -1.425415     0.223057
H      1.433570     1.246919     0.238795
9
Iteration 2, Energy=-154.0922594988, |grad|=0.007183
C     -0.918537     0.070910     0.049219
C      0.511544    -0.408146    -0.149548
O      1.449357     0.361762     0.554956
H     -1.102910     1.007146    -0.486927
H     -1.633760    -0.668245    -0.322453
H     -1.109287     0.248258     1.110710
H      0.756871    -0.435474    -1.217877
H      0.614250    -1.427039     0.226184
H      1.432472     1.250828     0.235736
9
Iteration 3, Energy=-154.0922843093, |grad|=0.009941
C     -0.918420     0.070867     0.050107
C      0.511334    -0.408869    -0.148564
O      1.449781     0.362241     0.552617
H     -1.099780     1.008457    -0.481447
H     -1.633775    -0.665557    -0.328472
H     -1.110550     0.244063     1.111288
H      0.756734    -0.439126    -1.216965
H      0.613734    -1.426605     0.229126
H      1.430943     1.254528     0.232311
9
Iteration 4, Energy=-154.0923184009, |grad|=0.010952
C     -0.918005     0.070831     0.050565
C      0.510838    -0.409409    -0.147964
O      1.449927     0.363773     0.550176
H     -1.096866     1.010653    -0.476502
H     -1.633119    -0.662413    -0.333476
H     -1.112135     0.239083     1.111605
H      0.756248    -0.442765    -1.216093
H      0.613967    -1.425986     0.232469
H      1.429144     1.256233     0.229220
9
Iteration 0, Energy=-154.0306663298, |grad|=0.435388
C     -1.026538    -0.019406     0.023372
C      0.403046    -0.238717    -0.173884
O      1.360514     0.293529     0.807033
H     -1.265518     0.725991    -0.655433
H     -1.650592    -0.921221    -0.031354
H     -1.138553     0.570413     0.995975
H      0.734716    -0.046688    -1.308991
H      0.574076    -1.524817    -0.007801
H      1.814333     1.133878     0.417996
9
Iteration -1, Energy=-154.0923184009, |grad|=0.010952
C     -0.918005     0.070831     0.050565
C      0.510838    -0.409409    -0.147964
O      1.449927     0.363773     0.550176
H     -1.096866     1.010653    -0.476502
H     -1.633119    -0.662413    -0.333476
H     -1.112135     0.239083     1.111605
H      0.756248    -0.442765    -1.216093
H      0.613967    -1.425986     0.232469
H      1.429144     1.256233     0.229220
9
Iteration 0, Energy=-154.0923372479, |grad|=0.006215
C     -0.917661     0.070938     0.050277
C      0.510809    -0.409728    -0.148141
O      1.449828     0.365250     0.549865
H     -1.096863     1.011555    -0.476620
H     -1.632838    -0.662132    -0.333224
H     -1.112493     0.238273     1.111666
H      0.755937    -0.442962    -1.216136
H      0.614415    -1.425687     0.232886
H      1.428867     1.254493     0.229427
9
Iteration 1, Energy=-154.0923491177, |grad|=0.006308
C     -0.917286     0.071279     0.049958
C      0.510952    -0.409788    -0.148250
O      1.449563     0.365372     0.549916
H     -1.096796     1.012674    -0.476678
H     -1.632484    -0.661766    -0.332944
H     -1.112963     0.237099     1.111643
H      0.755524    -0.443282    -1.216245
H      0.615097    -1.425321     0.233546
H      1.428393     1.253733     0.229055
9
Iteration 2, Energy=-154.0923856416, |grad|=0.005573
C     -0.915978     0.073957     0.048800
C      0.511432    -0.410215    -0.148304
O      1.448505     0.364898     0.550440
H     -1.096026     1.017700    -0.476151
H     -1.630760    -0.659857    -0.332190
H     -1.115226     0.230802     1.110992
H      0.753627    -0.445158    -1.217083
H      0.618560    -1.423501     0.237069
H      1.425867     1.251373     0.226427
9
Iteration 3, Energy=-154.0923994185, |grad|=0.009664
C     -0.916038     0.073259     0.048369
C      0.510782    -0.409076    -0.148285
O      1.448811     0.365231     0.549723
H     -1.094031     1.021382    -0.473355
H     -1.629410    -0.656937    -0.334532
H     -1.116995     0.225892     1.111000
H      0.752682    -0.447727    -1.216874
H      0.620321    -1.423430     0.240681
H      1.423878     1.251407     0.223273
9
Iteration 4, Energy=-154.0924208986, |grad|=0.006993
C     -0.915831     0.074311     0.048431
C      0.510867    -0.409780    -0.147630
O      1.448780     0.365548     0.548913
H     -1.092548     1.023229    -0.470930
H     -1.629096    -0.655526    -0.336799
H     -1.118180     0.222494     1.110914
H      0.752109    -0.449463    -1.216772
H      0.621253    -1.422654     0.242799
H      1.422647     1.251841     0.221074
9
Iteration 0, Energy=-154.0266760065, |grad|=0.459620
C     -0.986456     0.145440     0.058193
C      0.450098    -0.225666    -0.102215
O      1.277402     0.403326     0.710279
H     -1.419273     0.805305    -0.728253
H     -1.612308    -0.961533     0.009572
H     -0.990475     0.670613     1.013227
H      0.848585    -0.217025    -1.311237
H      0.528247    -1.381117    -0.133476
H      1.925031     1.087568     0.381966
9
Iteration -1, Energy=-154.0924208986, |grad|=0.006993
C     -0.915831     0.074311     0.048431
C      0.510867    -0.409780    -0.147630
O      1.448780     0.365548     0.548913
H     -1.092548     1.023229    -0.470930
H     -1.629096    -0.655526    -0.336799
H     -1.118180     0.222494     1.110914
H      0.752109    -0.449463    -1.216772
H      0.621253    -1.422654     0.242799
H      1.422647     1.251841     0.221074
9
Iteration 0, Energy=-154.0924305046, |grad|=0.006285
C     -0.915506     0.075589     0.049022
C      0.511499    -0.411443    -0.146949
O      1.448621     0.366312     0.548072
H     -1.092092     1.022488    -0.469752
H     -1.629965    -0.655976    -0.338414
H     -1.118264     0.222371     1.111069
H      0.752241    -0.449743    -1.216517
H      0.620644    -1.421987     0.242583
H      1.422821     1.252388     0.220886
9
Iteration 1, Energy=-154.0924372634, |grad|=0.004148
C     -0.915554     0.074943     0.049099
C      0.511469    -0.411076    -0.147030
O      1.448736     0.366347     0.547870
H     -1.091842     1.022578    -0.469337
H     -1.630002    -0.655693    -0.339009
H     -1.118347     0.222334     1.111301
H      0.752287    -0.450002    -1.216304
H      0.620440    -1.422259     0.242792
H      1.422814     1.252828     0.220618
9
Iteration 2, Energy=-154.0924540146, |grad|=0.003991
C     -0.915739     0.072844     0.049686
C      0.511473    -0.410575    -0.146874
O      1.449287     0.367534     0.546408
H     -1.090400     1.022632    -0.466729
H     -1.630486    -0.654508    -0.342539
H     -1.118808     0.221879     1.112356
H      0.752566    -0.451396    -1.215376
H      0.619276    -1.423016     0.243678
H      1.422831     1.254606     0.219389
9
Iteration 3, Energy=-154.0924659679, |grad|=0.004863
C     -0.916030     0.071677     0.050362
C      0.511406    -0.410777    -0.146295
O      1.449859     0.368939     0.544877
H     -1.088671     1.022722    -0.463582
H     -1.630885    -0.653156    -0.346414
H     -1.119450     0.220647     1.113153
H      0.752787    -0.453097    -1.214698
H      0.618331    -1.423337     0.244814
H      1.422653     1.256381     0.217784
9
Iteration 4, Energy=-154.0924915408, |grad|=0.010206
C     -0.915703     0.069875     0.051730
C      0.511356    -0.411094    -0.145609
O      1.450552     0.373666     0.540728
H     -1.083918     1.025659    -0.455379
H     -1.631057    -0.648767    -0.355921
H     -1.122341     0.214214     1.114823
H      0.752309    -0.458453    -1.212758
H      0.617669    -1.423454     0.249559
H      1.421133     1.258354     0.212827
9
Iteration 0, Energy=-154.0063289158, |grad|=0.819170
C     -0.916094     0.073263     0.033846
C      0.507400    -0.239524    -0.129402
O      1.281255     0.243619     0.661935
H     -1.289453     0.751116    -0.682601
H     -1.574721    -0.931308     0.046763
H     -1.000941     0.510538     0.925907
H      0.873806    -0.144196    -1.305246
H      0.667745    -1.438680     0.027183
H      1.857234     1.008402     0.428972
9
Iteration -1, Energy=-154.0924915408, |grad|=0.010206
C     -0.915703     0.069875     0.051730
C      0.511356    -0.411094    -0.145609
O      1.450552     0.373666     0.540728
H     -1.083918     1.025659    -0.455379
H     -1.631057    -0.648767    -0.355921
H     -1.122341     0.214214     1.114823
H      0.752309    -0.458453    -1.212758
H      0.617669    -1.423454     0.249559
H      1.421133     1.258354     0.212827
9
Iteration 0, Energy=-154.0925077894, |grad|=0.004879
C     -0.915796     0.071271     0.051496
C      0.511630    -0.412091    -0.144653
O      1.450285     0.372242     0.541133
H     -1.083822     1.025754    -0.455103
H     -1.630925    -0.648761    -0.355822
H     -1.122514     0.213373     1.114535
H      0.752192    -0.458579    -1.213307
H      0.618099    -1.422552     0.249656
H      1.420853     1.259344     0.212066
9
Iteration 1, Energy=-154.0925131813, |grad|=0.004110
C     -0.915756     0.071706     0.051397
C      0.511569    -0.412292    -0.144580
O      1.450230     0.372400     0.541185
H     -1.083742     1.026214    -0.455015
H     -1.630707    -0.648570    -0.355703
H     -1.122725     0.212664     1.114351
H      0.752022    -0.458759    -1.213456
H      0.618485    -1.422284     0.249986
H      1.420624     1.258921     0.211835
9
Iteration 2, Energy=-154.0925337492, |grad|=0.002927
C     -0.915239     0.073801     0.050635
C      0.511275    -0.412307    -0.144664
O      1.449703     0.372328     0.541734
H     -1.083068     1.030052    -0.454346
H     -1.629098    -0.646902    -0.355055
H     -1.124417     0.207467     1.113314
H      0.750678    -0.460270    -1.214072
H      0.621321    -1.420977     0.252842
H      1.418844     1.256807     0.209612
9
Iteration 3, Energy=-154.0925438101, |grad|=0.003912
C     -0.914402     0.073952     0.050144
C      0.511995    -0.412537    -0.144195
O      1.449114     0.372797     0.540679
H     -1.082056     1.032346    -0.452443
H     -1.628961    -0.645686    -0.356986
H     -1.125779     0.204444     1.113886
H      0.749976    -0.461684    -1.213554
H      0.622084    -1.420192     0.254773
H      1.418030     1.256560     0.207697
9
Iteration 4, Energy=-154.0925675559, |grad|=0.005642
C     -0.913493     0.074106     0.050352
C      0.512641    -0.413012    -0.143548
O      1.448885     0.374367     0.538493
H     -1.078976     1.037194    -0.446761
H     -1.628526    -0.642245    -0.362879
H     -1.128861     0.197004     1.114415
H      0.748661    -0.465565    -1.212282
H      0.623586    -1.418922     0.259797
H      1.416083     1.257073     0.202414
9
Iteration 0, Energy=-154.0534028704, |grad|=0.349132
C     -0.927433     0.020955     0.048711
C      0.536581    -0.310966    -0.173281
O      1.274935     0.309066     0.712842
H     -1.318709     0.766781    -0.676874
H     -1.655768    -0.857767    -0.063087
H     -0.989004     0.684228     0.955752
H      0.861726    -0.044692    -1.303015
H      0.533609    -1.468341     0.025696
H      1.798280     1.016494     0.334386
9
Iteration -1, Energy=-154.0925675559, |grad|=0.005642
C     -0.913493     0.074106     0.050352
C      0.512641    -0.413012    -0.143548
O      1.448885     0.374367     0.538493
H     -1.078976     1.037194    -0.446761
H     -1.628526    -0.642245    -0.362879
H     -1.128861     0.197004     1.114415
H      0.748661    -0.465565    -1.212282
H      0.623586    -1.418922     0.259797
H      1.416083     1.257073     0.202414
9
Iteration 0, Energy=-154.0925786869, |grad|=0.003139
C     -0.914808     0.074092     0.050905
C      0.511395    -0.413076    -0.143140
O      1.449999     0.375101     0.538626
H     -1.078341     1.036024    -0.445555
H     -1.628211    -0.641587    -0.363843
H     -1.128635     0.196988     1.113881
H      0.749180    -0.465989    -1.212778
H      0.623217    -1.419449     0.259917
H      1.416204     1.257896     0.201988
9
Iteration 1, Energy=-154.0925842459, |grad|=0.002768
C     -0.914963     0.073569     0.051203
C      0.511324    -0.412949    -0.142986
O      1.450156     0.375579     0.538090
H     -1.077863     1.035608    -0.444547
H     -1.628375    -0.641188    -0.365098
H     -1.128768     0.196969     1.114160
H      0.749393    -0.466419    -1.212498
H      0.622707    -1.419743     0.260078
H      1.416389     1.258572     0.201598
9
Iteration 2, Energy=-154.0925903119, |grad|=0.008095
C     -0.915083     0.071786     0.052746
C      0.511512    -0.414902    -0.141830
O      1.450716     0.378811     0.535357
H     -1.075456     1.035002    -0.439436
H     -1.629272    -0.639263    -0.371669
H     -1.130021     0.195557     1.115688
H      0.750009    -0.468827    -1.211064
H      0.620520    -1.419410     0.260985
H      1.417076     1.261247     0.199222
9
Iteration 3, Energy=-154.0926003650, |grad|=0.003879
C     -0.914930     0.071092     0.052706
C      0.511705    -0.413471    -0.142076
O      1.450542     0.378246     0.535079
H     -1.074878     1.035550    -0.438460
H     -1.629259    -0.638616    -0.372785
H     -1.130537     0.194703     1.116108
H      0.749884    -0.469577    -1.210626
H      0.620559    -1.420060     0.261904
H      1.416915     1.262131     0.198151
9
Iteration 4, Energy=-154.0926044144, |grad|=0.003069
C     -0.914817     0.071377     0.052499
C      0.511774    -0.413304    -0.142101
O      1.450402     0.378324     0.535114
H     -1.074830     1.036154    -0.438464
H     -1.629094    -0.638488    -0.372616
H     -1.130772     0.194018     1.116041
H      0.749665    -0.469745    -1.210698
H      0.620972    -1.419956     0.262295
H      1.416700     1.261620     0.197931
9
Iteration 0, Energy=-154.0381451025, |grad|=0.462325
C     -0.879050     0.140720    -0.002755
C      0.479555    -0.395934    -0.230741
O      1.266382     0.373231     0.772515
H     -1.323273     0.791643    -0.659172
H     -1.607308    -0.894225    -0.024613
H     -1.120717     0.500480     1.079218
H      0.725616    -0.057076    -1.248066
H      0.591452    -1.395584     0.005559
H      1.763139     1.142604     0.360833
9
Iteration -1, Energy=-154.0926044144, |grad|=0.003069
C     -0.914817     0.071377     0.052499
C      0.511774    -0.413304    -0.142101
O      1.450402     0.378324     0.535114
H     -1.074830     1.036154    -0.438464
H     -1.629094    -0.638488    -0.372616
H     -1.130772     0.194018     1.116041
H      0.749665    -0.469745    -1.210698
H      0.620972    -1.419956     0.262295
H      1.416700     1.261620     0.197931
9
Iteration 0, Energy=-154.0926073278, |grad|=0.002692
C     -0.914862     0.071833     0.052433
C      0.511712    -0.413635    -0.141903
O      1.450387     0.378659     0.535080
H     -1.074729     1.036507    -0.438283
H     -1.628928    -0.638333    -0.372606
H     -1.130947     0.193370     1.115841
H      0.749541    -0.469906    -1.210854
H      0.621279    -1.419655     0.262557
H      1.416548     1.261159     0.197735
9
Iteration 1, Energy=-154.0926118931, |grad|=0.003148
C     -0.914868     0.072536     0.052264
C      0.511625    -0.413844    -0.141692
O      1.450298     0.378707     0.535179
H     -1.074479     1.037463    -0.437878
H     -1.628546    -0.637901    -0.372630
H     -1.131401     0.191886     1.115481
H      0.749217    -0.470329    -1.211044
H      0.622005    -1.419191     0.263315
H      1.416150     1.260673     0.197004
9
Iteration 2, Energy=-154.0926193414, |grad|=0.003752
C     -0.914406     0.073336     0.051758
C      0.511552    -0.413615    -0.141702
O      1.449953     0.379022     0.535070
H     -1.073696     1.040311    -0.436532
H     -1.627730    -0.636552    -0.373316
H     -1.132835     0.188045     1.115103
H      0.748302    -0.471634    -1.210915
H      0.623679    -1.418420     0.265629
H      1.415180     1.259507     0.194904
9
Iteration 3, Energy=-154.0926224301, |grad|=0.006276
C     -0.914162     0.074545     0.051601
C      0.511967    -0.414308    -0.140748
O      1.449518     0.378511     0.534712
H     -1.072442     1.042805    -0.433966
H     -1.627201    -0.634955    -0.375426
H     -1.134484     0.183753     1.114820
H      0.747532    -0.473326    -1.210798
H      0.624980    -1.417099     0.268064
H      1.414292     1.260074     0.191741
9
Iteration 4, Energy=-154.0926286310, |grad|=0.003651
C     -0.914100     0.073959     0.051713
C      0.511878    -0.413973    -0.140997
O      1.449636     0.379063     0.534405
H     -1.072259     1.042837    -0.433579
H     -1.627275    -0.634725    -0.376002
H     -1.134602     0.183746     1.115047
H      0.747576    -0.473517    -1.210505
H      0.624769    -1.417409     0.268275
H      1.414379     1.260018     0.191643
9
Iteration 0, Energy=-153.9921973155, |grad|=0.979002
C     -0.978682    -0.045868     0.075761
C      0.573828    -0.278839    -0.220622
O      1.316298     0.330709     0.675655
H     -1.360234     0.705372    -0.655032
H     -1.556888    -0.777966     0.030468
H     -1.076168     0.579887     1.100258
H      0.763300    -0.190235    -1.176402
H      0.624917    -1.473649    -0.140771
H      1.735826     0.967433     0.415668
9
Iteration -1, Energy=-154.0926286310, |grad|=0.003651
C     -0.914100     0.073959     0.051713
C      0.511878    -0.413973    -0.140997
O      1.449636     0.379063     0.534405
H     -1.072259     1.042837    -0.433579
H     -1.627275    -0.634725    -0.376002
H     -1.134602     0.183746     1.115047
H      0.747576    -0.473517    -1.210505
H      0.624769    -1.417409     0.268275
H      1.414379     1.260018     0.191643
9
Iteration 0, Energy=-154.0926322139, |grad|=0.003661
C     -0.914205     0.073386     0.051903
C      0.511653    -0.413837    -0.141118
O      1.449902     0.380118     0.533954
H     -1.072016     1.042579    -0.433035
H     -1.627374    -0.634473    -0.376751
H     -1.134656     0.183882     1.115269
H      0.747732    -0.473717    -1.210283
H      0.624397    -1.417751     0.268371
H      1.414567     1.259813     0.191690
9
Iteration 1, Energy=-154.0926356031, |grad|=0.003065
C     -0.914320     0.072990     0.052101
C      0.511616    -0.413780    -0.141037
O      1.450053     0.380365     0.533674
H     -1.071756     1.042280    -0.432428
H     -1.627512    -0.634254    -0.377562
H     -1.134723     0.183963     1.115483
H      0.747887    -0.473931    -1.210104
H      0.624033    -1.417946     0.268444
H      1.414722     1.260314     0.191429
9
Iteration 2, Energy=-154.0926405517, |grad|=0.005304
C     -0.914694     0.071911     0.053222
C      0.512002    -0.414950    -0.139845
O      1.450400     0.382127     0.531767
H     -1.070244     1.041101    -0.428790
H     -1.628345    -0.633121    -0.382278
H     -1.135424     0.183513     1.116570
H      0.748538    -0.475289    -1.209233
H      0.622251    -1.417908     0.268851
H      1.415515     1.262617     0.189737
9
Iteration 3, Energy=-154.0926454887, |grad|=0.002870
C     -0.914639     0.071175     0.053262
C      0.511808    -0.413969    -0.140278
O      1.450485     0.381929     0.531753
H     -1.069873     1.041652    -0.428163
H     -1.628182    -0.632540    -0.382963
H     -1.135823     0.182841     1.116762
H      0.748449    -0.475807    -1.208868
H      0.622353    -1.418365     0.269562
H      1.415422     1.263086     0.188933
9
Iteration 4, Energy=-154.0926474901, |grad|=0.002356
C     -0.914589     0.071429     0.053135
C      0.511783    -0.413996    -0.140246
O      1.450407     0.381936     0.531824
H     -1.069838     1.042030    -0.428140
H     -1.628030    -0.632434    -0.382828
H     -1.135986     0.182345     1.116662
H      0.748316    -0.475925    -1.208937
H      0.622643    -1.418203     0.269787
H      1.415293     1.262818     0.188744
9
Iteration 0, Energy=-154.0445534929, |grad|=0.466181
C     -0.989549     0.012477     0.103309
C      0.437927    -0.366904    -0.134035
O      1.314405     0.404893     0.787154
H     -1.300200     0.645845    -0.770409
H     -1.636704    -0.831820     0.113375
H     -1.039849     0.679573     1.100875
H      0.880774    -0.094526    -1.263808
H      0.587956    -1.337157    -0.079633
H      1.837153     1.019647     0.373746
9
Iteration -1, Energy=-154.0926474901, |grad|=0.002356
C     -0.914589     0.071429     0.053135
C      0.511783    -0.413996    -0.140246
O      1.450407     0.381936     0.531824
H     -1.069838     1.042030    -0.428140
H     -1.628030    -0.632434    -0.382828
H     -1.135986     0.182345     1.116662
H      0.748316    -0.475925    -1.208937
H      0.622643    -1.418203     0.269787
H      1.415293     1.262818     0.188744
9
Iteration 0, Energy=-154.0926487518, |grad|=0.001808
C     -0.914597     0.071687     0.053097
C      0.511774    -0.414221    -0.140110
O      1.450381     0.382165     0.531773
H     -1.069780     1.042191    -0.428016
H     -1.627963    -0.632364    -0.382861
H     -1.136090     0.182009     1.116582
H      0.748256    -0.476015    -1.209010
H      0.622777    -1.418020     0.269900
H      1.415242     1.262567     0.188645
9
Iteration 1, Energy=-154.0926507719, |grad|=0.002319
C     -0.914585     0.072116     0.053012
C      0.511758    -0.414424    -0.139933
O      1.450300     0.382298     0.531777
H     -1.069620     1.042703    -0.427711
H     -1.627773    -0.632124    -0.382962
H     -1.136385     0.181145     1.116412
H      0.748084    -0.476282    -1.209100
H      0.623144    -1.417712     0.270298
H      1.415079     1.262280     0.188207
9
Iteration 2, Energy=-154.0926550174, |grad|=0.003004
C     -0.914444     0.072855     0.052783
C      0.511693    -0.414519    -0.139725
O      1.450077     0.382559     0.531767
H     -1.069112     1.044337    -0.426763
H     -1.627239    -0.631306    -0.383426
H     -1.137308     0.178673     1.116068
H      0.747567    -0.477129    -1.209128
H      0.624151    -1.417094     0.271619
H      1.414615     1.261623     0.186806
9
Iteration 3, Energy=-154.0926600176, |grad|=0.004178
C     -0.914195     0.073551     0.052641
C      0.511934    -0.414878    -0.139057
O      1.449712     0.382703     0.531333
H     -1.068040     1.046401    -0.424420
H     -1.626801    -0.629885    -0.385410
H     -1.138843     0.175062     1.115974
H      0.746961    -0.478611    -1.208838
H      0.625110    -1.416141     0.273667
H      1.414161     1.261799     0.184111
9
Iteration 4, Energy=-154.0926681809, |grad|=0.003465
C     -0.913900     0.073703     0.052669
C      0.511954    -0.414788    -0.138630
O      1.449480     0.383850     0.530427
H     -1.066371     1.049338    -0.420835
H     -1.626178    -0.627602    -0.388677
H     -1.141062     0.170068     1.115962
H      0.746182    -0.480858    -1.208111
H      0.626254    -1.415347     0.276804
H      1.413640     1.261635     0.180391
9
Iteration 0, Energy=-154.0201471149, |grad|=0.599886
C     -0.999070     0.138258     0.141932
C      0.564226    -0.280013    -0.103977
O      1.273132     0.333131     0.792025
H     -1.299767     0.723110    -0.647066
H     -1.570994    -0.937225    -0.042101
H     -1.106099     0.571093     1.054517
H      0.714569    -0.062395    -1.262123
H      0.626789    -1.509394    -0.082967
H      1.857659     1.096415     0.367320
9
Iteration -1, Energy=-154.0926681809, |grad|=0.003465
C     -0.913900     0.073703     0.052669
C      0.511954    -0.414788    -0.138630
O      1.449480     0.383850     0.530427
H     -1.066371     1.049338    -0.420835
H     -1.626178    -0.627602    -0.388677
H     -1.141062     0.170068     1.115962
H      0.746182    -0.480858    -1.208111
H      0.626254    -1.415347     0.276804
H      1.413640     1.261635     0.180391
9
Iteration 0, Energy=-154.0926716821, |grad|=0.005568
C     -0.914253     0.072295     0.053144
C      0.511446    -0.414071    -0.139049
O      1.450080     0.385224     0.529812
H     -1.065978     1.048689    -0.419922
H     -1.626332    -0.627102    -0.390012
H     -1.141050     0.170598     1.116314
H      0.746553    -0.481130    -1.207645
H      0.625496    -1.416264     0.276986
H      1.414038     1.261762     0.180373
9
Iteration 1, Energy=-154.0926760979, |grad|=0.002487
C     -0.914330     0.072315     0.053237
C      0.511592    -0.414326    -0.138724
O      1.450075     0.384953     0.529701
H     -1.065850     1.048354    -0.419520
H     -1.626487    -0.627060    -0.390537
H     -1.141071     0.170685     1.116457
H      0.746673    -0.481202    -1.207615
H      0.625237    -1.416168     0.276907
H      1.414161     1.262448     0.180095
9
Iteration 2, Energy=-154.0926788329, |grad|=0.001261
C     -0.914481     0.071997     0.053534
C      0.511725    -0.414677    -0.138316
O      1.450189     0.385215     0.529226
H     -1.065524     1.047727    -0.418585
H     -1.626793    -0.626851    -0.391811
H     -1.141160     0.170875     1.116808
H      0.746941    -0.481421    -1.207396
H      0.624617    -1.416186     0.276847
H      1.414488     1.263320     0.179693
9
Iteration 3, Energy=-154.0926798129, |grad|=0.001259
C     -0.914477     0.071692     0.053721
C      0.511807    -0.414748    -0.138219
O      1.450209     0.385528     0.528894
H     -1.065287     1.047631    -0.417965
H     -1.626928    -0.626623    -0.392645
H     -1.141350     0.170743     1.117047
H      0.747030    -0.481661    -1.207156
H      0.624332    -1.416218     0.276982
H      1.414663     1.263656     0.179340
9
Iteration 4, Energy=-154.0926829461, |grad|=0.002179
C     -0.914645     0.071378     0.053993
C      0.511779    -0.415003    -0.137637
O      1.450289     0.386604     0.528093
H     -1.064388     1.047901    -0.415787
H     -1.626930    -0.625591    -0.395020
H     -1.142262     0.169246     1.117494
H      0.747122    -0.482717    -1.206755
H      0.624044    -1.416058     0.277883
H      1.414991     1.264240     0.177735
9
Iteration 0, Energy=-154.0041562233, |grad|=0.775976
C     -1.019870    -0.042852    -0.051909
C      0.539635    -0.284741    -0.237554
O      1.245424     0.337875     0.642382
H     -1.445087     0.817142    -0.684491
H     -1.527723    -0.806812     0.108522
H     -0.993088     0.545885     1.037308
H      0.738747    -0.059808    -1.318679
H      0.618485    -1.505907     0.011688
H      1.875441     1.098563     0.308952
9
Iteration -1, Energy=-154.0926829461, |grad|=0.002179
C     -0.914645     0.071378     0.053993
C      0.511779    -0.415003    -0.137637
O      1.450289     0.386604     0.528093
H     -1.064388     1.047901    -0.415787
H     -1.626930    -0.625591    -0.395020
H     -1.142262     0.169246     1.117494
H      0.747122    -0.482717    -1.206755
H      0.624044    -1.416058     0.277883
H      1.414991     1.264240     0.177735
9
Iteration 0, Energy=-154.0926840575, |grad|=0.001786
C     -0.914557     0.071229     0.054122
C      0.511758    -0.414624    -0.137996
O      1.450245     0.386457     0.528219
H     -1.064354     1.048351    -0.415796
H     -1.626824    -0.625461    -0.394990
H     -1.142410     0.168877     1.117354
H      0.746989    -0.482840    -1.206588
H      0.624256    -1.416154     0.278191
H      1.414898     1.264164     0.177484
9
Iteration 1, Energy=-154.0926848748, |grad|=0.001540
C     -0.914509     0.071347     0.054064
C      0.511762    -0.414651    -0.137971
O      1.450186     0.386510     0.528225
H     -1.064314     1.048613    -0.415706
H     -1.626745    -0.625369    -0.394995
H     -1.142545     0.168525     1.117297
H      0.746901    -0.482933    -1.206587
H      0.624418    -1.416041     0.278362
H      1.414846     1.264000     0.177312
9
Iteration 2, Energy=-154.0926874898, |grad|=0.002968
C     -0.914233     0.072592     0.053491
C      0.511843    -0.414869    -0.137409
O      1.449673     0.386273     0.528424
H     -1.063780     1.050852    -0.414460
H     -1.626032    -0.624394    -0.395412
H     -1.143874     0.165084     1.116806
H      0.746147    -0.483928    -1.206675
H      0.625881    -1.414955     0.280070
H      1.414376     1.263345     0.175165
9
Iteration 3, Energy=-154.0926892758, |grad|=0.002578
C     -0.914284     0.072499     0.053658
C      0.511681    -0.414852    -0.137470
O      1.449776     0.387222     0.528116
H     -1.063467     1.051338    -0.413713
H     -1.625913    -0.623936    -0.396135
H     -1.144286     0.164182     1.116723
H      0.746048    -0.484328    -1.206488
H      0.626025    -1.414925     0.280683
H      1.414420     1.262799     0.174624
9
Iteration 4, Energy=-154.0926903953, |grad|=0.002038
C     -0.914341     0.072330     0.053743
C      0.511685    -0.414842    -0.137420
O      1.449835     0.387274     0.528014
H     -1.063379     1.051201    -0.413466
H     -1.625980    -0.623854    -0.396480
H     -1.144313     0.164230     1.116818
H      0.746118    -0.484386    -1.206414
H      0.625869    -1.414991     0.280714
H      1.414506     1.263037     0.174490
9
Iteration 0, Energy=-154.0584241524, |grad|=0.454457
C     -0.965040     0.105474     0.059883
C      0.564961    -0.330706    -0.157729
O      1.292486     0.378128     0.827483
H     -1.331692     0.760380    -0.662710
H     -1.545509    -0.846237     0.120218
H     -0.989393     0.530890     0.957988
H      0.867746    -0.155064    -1.166030
H      0.683257    -1.389400    -0.069938
H      1.774876     0.961984     0.409683
9
Iteration -1, Energy=-154.0926903953, |grad|=0.002038
C     -0.914341     0.072330     0.053743
C      0.511685    -0.414842    -0.137420
O      1.449835     0.387274     0.528014
H     -1.063379     1.051201    -0.413466
H     -1.625980    -0.623854    -0.396480
H     -1.144313     0.164230     1.116818
H      0.746118    -0.484386    -1.206414
H      0.625869    -1.414991     0.280714
H      1.414506     1.263037     0.174490
9
Iteration 0, Energy=-154.0926911664, |grad|=0.001641
C     -0.914346     0.072216     0.053767
C      0.511768    -0.414812    -0.137324
O      1.449812     0.386977     0.527998
H     -1.063309     1.051115    -0.413255
H     -1.626043    -0.623789    -0.396766
H     -1.144361     0.164237     1.116931
H      0.746160    -0.484442    -1.206346
H      0.625758    -1.414996     0.280744
H      1.414561     1.263494     0.174251
9
Iteration 1, Energy=-154.0926917379, |grad|=0.001458
C     -0.914356     0.072110     0.053817
C      0.511784    -0.414845    -0.137279
O      1.449830     0.387095     0.527884
H     -1.063241     1.051049    -0.413057
H     -1.626091    -0.623721    -0.397034
H     -1.144407     0.164228     1.117014
H      0.746199    -0.484497    -1.206276
H      0.625652    -1.415010     0.280775
H      1.414630     1.263592     0.174156
9
Iteration 2, Energy=-154.0926944793, |grad|=0.002336
C     -0.914747     0.070961     0.054638
C      0.511622    -0.414666    -0.137097
O      1.450236     0.388436     0.526885
H     -1.062305     1.050638    -0.410616
H     -1.626359    -0.622658    -0.400089
H     -1.145092     0.163507     1.117549
H      0.746566    -0.485395    -1.205518
H      0.624785    -1.415433     0.281605
H      1.415294     1.264609     0.172644
9
Iteration 3, Energy=-154.0926954048, |grad|=0.003013
C     -0.914774     0.070995     0.054489
C      0.511767    -0.415371    -0.136210
O      1.450147     0.389113     0.526248
H     -1.061803     1.050702    -0.409141
H     -1.626417    -0.622057    -0.401630
H     -1.145714     0.162542     1.118005
H      0.746632    -0.485951    -1.205385
H      0.624557    -1.414942     0.282023
H      1.415605     1.264970     0.171599
9
Iteration 4, Energy=-154.0926967956, |grad|=0.001689
C     -0.914715     0.071045     0.054523
C      0.511744    -0.415147    -0.136456
O      1.450106     0.388959     0.526419
H     -1.061856     1.050980    -0.409347
H     -1.626326    -0.622075    -0.401348
H     -1.145740     0.162375     1.117846
H      0.746527    -0.485955    -1.205362
H      0.624763    -1.414985     0.282138
H      1.415498     1.264803     0.171587
9
Iteration 0, Energy=-154.0256288014, |grad|=0.604876
C     -1.035320    -0.009278     0.049209
C      0.511006    -0.408697    -0.259217
O      1.273800     0.421426     0.761630
H     -1.396788     0.815490    -0.760529
H     -1.517463    -0.891758    -0.000407
H     -1.133845     0.557202     1.022130
H      0.781387    -0.058176    -1.137856
H      0.666907    -1.348659    -0.081190
H      1.889711     1.044816     0.487395
9
Iteration -1, Energy=-154.0926967956, |grad|=0.001689
C     -0.914715     0.071045     0.054523
C      0.511744    -0.415147    -0.136456
O      1.450106     0.388959     0.526419
H     -1.061856     1.050980    -0.409347
H     -1.626326    -0.622075    -0.401348
H     -1.145740     0.162375     1.117846
H      0.746527    -0.485955    -1.205362
H      0.624763    -1.414985     0.282138
H      1.415498     1.264803     0.171587
9
Iteration 0, Energy=-154.0926975998, |grad|=0.001711
C     -0.914643     0.071031     0.054618
C      0.511736    -0.414823    -0.136739
O      1.450044     0.388761     0.526575
H     -1.061828     1.051393    -0.409353
H     -1.626220    -0.621976    -0.401283
H     -1.145887     0.161980     1.117686
H      0.746394    -0.486074    -1.205247
H      0.624997    -1.415039     0.282423
H      1.415406     1.264746     0.171321
9
Iteration 1, Energy=-154.0926983143, |grad|=0.001364
C     -0.914600     0.071176     0.054554
C      0.511733    -0.414845    -0.136714
O      1.449984     0.388818     0.526600
H     -1.061797     1.051663    -0.409284
H     -1.626131    -0.621895    -0.401249
H     -1.146023     0.161619     1.117612
H      0.746303    -0.486164    -1.205262
H      0.625176    -1.414924     0.282586
H      1.415357     1.264553     0.171156
9
Iteration 2, Energy=-154.0926997846, |grad|=0.001944
C     -0.914442     0.072058     0.054098
C      0.511772    -0.415059    -0.136272
O      1.449629     0.388677     0.526810
H     -1.061536     1.053092    -0.408615
H     -1.625639    -0.621343    -0.401311
H     -1.146861     0.159455     1.117276
H      0.745822    -0.486742    -1.205403
H      0.626143    -1.414165     0.283560
H      1.415110     1.264027     0.169856
9
Iteration 3, Energy=-154.0927006428, |grad|=0.001717
C     -0.914441     0.071984     0.054232
C      0.511683    -0.414993    -0.136381
O      1.449667     0.389248     0.526637
H     -1.061360     1.053445    -0.408165
H     -1.625565    -0.621068    -0.401747
H     -1.147142     0.158863     1.117201
H      0.745743    -0.486983    -1.205235
H      0.626254    -1.414155     0.283966
H      1.415162     1.263660     0.169491
9
Iteration 4, Energy=-154.0927030540, |grad|=0.000979
C     -0.914608     0.071467     0.054534
C      0.511678    -0.414950    -0.136174
O      1.449818     0.389674     0.526182
H     -1.060920     1.053308    -0.406896
H     -1.625717    -0.620546    -0.403283
H     -1.147521     0.158409     1.117468
H      0.745888    -0.487373    -1.204867
H      0.625879    -1.414261     0.284454
H      1.415503     1.264272     0.168581
9
Iteration 0, Energy=-153.9576896114, |grad|=0.972355
C     -0.864563     0.072927    -0.026642
C      0.388148    -0.225665    -0.092641
O      1.196595     0.238366     0.789799
H     -1.306603     0.769573    -0.661647
H     -1.668956    -0.821811    -0.077747
H     -1.044723     0.672685     1.104813
H      0.728598    -0.111255    -1.235318
H      0.654485    -1.395284     0.015292
H      1.868677     0.953192     0.322909
9
Iteration -1, Energy=-154.0927030540, |grad|=0.000979
C     -0.914608     0.071467     0.054534
C      0.511678    -0.414950    -0.136174
O      1.449818     0.389674     0.526182
H     -1.060920     1.053308    -0.406896
H     -1.625717    -0.620546    -0.403283
H     -1.147521     0.158409     1.117468
H      0.745888    -0.487373    -1.204867
H      0.625879    -1.414261     0.284454
H      1.415503     1.264272     0.168581
9
Iteration 0, Energy=-154.0927032891, |grad|=0.000911
C     -0.914599     0.071527     0.054456
C      0.511738    -0.415082    -0.135986
O      1.449764     0.389595     0.526141
H     -1.060874     1.053304    -0.406733
H     -1.625721    -0.620487    -0.403435
H     -1.147602     0.158288     1.117551
H      0.745894    -0.487428    -1.204882
H      0.625862    -1.414142     0.284474
H      1.415539     1.264424     0.168414
9
Iteration 0, Energy=-154.0421530087, |grad|=0.550753
C     -0.947767     0.105671     0.013588
C      0.563546    -0.324145    -0.150999
O      1.344764     0.286225     0.735228
H     -1.356441     0.641301    -0.658568
H     -1.508984    -0.959264    -0.068463
H     -0.980822     0.501111     0.949824
H      0.786645    -0.125911    -1.168154
H      0.686388    -1.387686    -0.104934
H      1.762860     1.110707     0.449258
9
Iteration -1, Energy=-154.0927032891, |grad|=0.000911
C     -0.914599     0.071527     0.054456
C      0.511738    -0.415082    -0.135986
O      1.449764     0.389595     0.526141
H     -1.060874     1.053304    -0.406733
H     -1.625721    -0.620487    -0.403435
H     -1.147602     0.158288     1.117551
H      0.745894    -0.487428    -1.204882
H      0.625862    -1.414142     0.284474
H      1.415539     1.264424     0.168414
9
Iteration 0, Energy=-154.0927034159, |grad|=0.000673
C     -0.914597     0.071494     0.054493
C      0.511723    -0.415054    -0.136026
O      1.449773     0.389677     0.526116
H     -1.060856     1.053334    -0.406689
H     -1.625717    -0.620457    -0.403490
H     -1.147629     0.158243     1.117545
H      0.745890    -0.487455    -1.204850
H      0.625861    -1.414162     0.284514
H      1.415551     1.264379     0.168387
9
Iteration 0, Energy=-154.0468348866, |grad|=0.394788
C     -1.033540     0.112580     0.086737
C      0.406288    -0.242463    -0.278574
O      1.359224     0.330387     0.784280
H     -1.325123     0.833011    -0.640226
H     -1.501134    -0.797504     0.090451
H     -0.989195     0.595230     1.103612
H      0.798034    -0.141129    -1.250941
H      0.496812    -1.460965    -0.134381
H      1.890438     0.960251     0.392900
9
Iteration -1, Energy=-154.0927034159, |grad|=0.000673
C     -0.914597     0.071494     0.054493
C      0.511723    -0.415054    -0.136026
O      1.449773     0.389677     0.526116
H     -1.060856     1.053334    -0.406689
H     -1.625717    -0.620457    -0.403490
H     -1.147629     0.158243     1.117545
H      0.745890    -0.487455    -1.204850
H      0.625861    -1.414162     0.284514
H      1.415551     1.264379     0.168387
9
Iteration 0, Energy=-154.0927043379, |grad|=0.002358
C     -0.914625     0.071171     0.054847
C      0.511636    -0.414803    -0.136150
O      1.449788     0.390316     0.525818
H     -1.060454     1.053767    -0.405657
H     -1.625633    -0.619862    -0.404636
H     -1.148205     0.157250     1.117598
H      0.745852    -0.488003    -1.204455
H      0.625864    -1.414217     0.285199
H      1.415776     1.264380     0.167435
9
Iteration 1, Energy=-154.0927108018, |grad|=0.002210
C     -0.914891     0.070557     0.055602
C      0.511582    -0.414842    -0.134968
O      1.449569     0.392409     0.524372
H     -1.058361     1.055560    -0.399920
H     -1.625206    -0.616848    -0.410550
H     -1.151256     0.151906     1.118280
H      0.745721    -0.490764    -1.203149
H      0.625891    -1.413471     0.288332
H      1.416951     1.265493     0.161999
9
Iteration 2, Energy=-154.0927138267, |grad|=0.003232
C     -0.915117     0.070369     0.055971
C      0.511525    -0.415342    -0.133723
O      1.449396     0.394866     0.522983
H     -1.056604     1.057307    -0.394966
H     -1.624784    -0.614294    -0.415433
H     -1.153927     0.147039     1.118745
H      0.745490    -0.493073    -1.202143
H      0.626097    -1.412533     0.291064
H      1.417924     1.265660     0.157502
9
Iteration 3, Energy=-154.0927163029, |grad|=0.001549
C     -0.915317     0.070048     0.056424
C      0.511527    -0.415341    -0.132723
O      1.449177     0.396300     0.521969
H     -1.054913     1.059118    -0.390238
H     -1.624362    -0.611811    -0.420092
H     -1.156508     0.142303     1.119088
H      0.745227    -0.495316    -1.201089
H      0.626387    -1.411790     0.293852
H      1.418783     1.266489     0.152808
9
Iteration 4, Energy=-154.0927175056, |grad|=0.001255
C     -0.915361     0.070107     0.056434
C      0.511531    -0.415314    -0.132379
O      1.449072     0.396744     0.521705
H     -1.054377     1.060054    -0.388610
H     -1.624136    -0.610940    -0.421461
H     -1.157456     0.140353     1.118948
H      0.744989    -0.496041    -1.200744
H      0.626754    -1.411420     0.295021
H      1.418984     1.266458     0.151086
9
Iteration 0, Energy=-154.0206905086, |grad|=0.634308
C     -0.960997     0.123660     0.111430
C      0.569860    -0.226448    -0.245290
O      1.351226     0.347875     0.787903
H     -1.409402     0.683598    -0.642009
H     -1.607645    -0.949697     0.100298
H     -1.022594     0.561337     0.938499
H      0.693510    -0.096287    -1.283906
H      0.498361    -1.427514    -0.056191
H      1.888276     0.980532     0.377408
9
Iteration -1, Energy=-154.0927175056, |grad|=0.001255
C     -0.915361     0.070107     0.056434
C      0.511531    -0.415314    -0.132379
O      1.449072     0.396744     0.521705
H     -1.054377     1.060054    -0.388610
H     -1.624136    -0.610940    -0.421461
H     -1.157456     0.140353     1.118948
H      0.744989    -0.496041    -1.200744
H      0.626754    -1.411420     0.295021
H      1.418984     1.266458     0.151086
9
Iteration 0, Energy=-154.0927183456, |grad|=0.001287
C     -0.915253     0.070262     0.056335
C      0.511476    -0.415210    -0.132545
O      1.449065     0.396744     0.521832
H     -1.054481     1.060478    -0.388711
H     -1.624065    -0.610973    -0.421110
H     -1.157504     0.140023     1.118585
H      0.744802    -0.495934    -1.200725
H      0.627103    -1.411338     0.295294
H      1.418855     1.265947     0.151045
9
Iteration 1, Energy=-154.0927189624, |grad|=0.000428
C     -0.915162     0.070594     0.056032
C      0.511514    -0.415217    -0.132479
O      1.448991     0.396347     0.522075
H     -1.054619     1.060954    -0.388794
H     -1.623971    -0.611020    -0.420655
H     -1.157576     0.139583     1.118206
H      0.744578    -0.495775    -1.200816
H      0.627552    -1.411092     0.295593
H      1.418692     1.265625     0.150836
9
Iteration 2, Energy=-154.0927189902, |grad|=0.000157
C     -0.915171     0.070639     0.055987
C      0.511529    -0.415274    -0.132430
O      1.448986     0.396374     0.522070
H     -1.054634     1.060980    -0.388789
H     -1.623970    -0.611027    -0.420640
H     -1.157589     0.139547     1.118208
H      0.744569    -0.495751    -1.200843
H      0.627579    -1.411046     0.295610
H      1.418700     1.265559     0.150828
9
Iteration 0, Energy=-154.0132496047, |grad|=0.637914
C     -0.864552     0.108018     0.060165
C      0.413419    -0.278723    -0.241539
O      1.186613     0.298385     0.657121
H     -1.284522     0.793781    -0.727628
H     -1.597439    -0.957367     0.038439
H     -1.038970     0.539403     1.030835
H      0.737350    -0.203036    -1.256394
H      0.600824    -1.351837     0.016587
H      1.904168     1.000667     0.296514
