14
Iteration -1, Energy=-157.2936815052, |grad|=0.093420
C     -1.595040     0.328784    -0.013845
C     -0.599782    -0.582040    -0.741230
C      0.728890    -0.737337     0.085637
C      1.503947     0.550323     0.410539
H     -1.060316     0.841893     0.761134
H     -2.413070    -0.234730     0.457361
H     -2.094154     1.043283    -0.665704
H     -0.455410    -0.240210    -1.781130
H     -1.030545    -1.561095    -0.827370
H      0.399309    -1.149900     1.026468
H      1.361714    -1.454310    -0.419501
H      2.542629     0.456658     0.772461
H      0.989255     1.099626     1.207374
H      1.561828     1.169818    -0.495075
14
Iteration 1, Energy=-157.2956507002, |grad|=0.076512
C     -1.608260     0.318516    -0.017304
C     -0.583912    -0.567953    -0.737009
C      0.716226    -0.728455     0.075247
C      1.501775     0.560930     0.402748
H     -1.063198     0.856233     0.771063
H     -2.406616    -0.235353     0.457858
H     -2.090263     1.047868    -0.667783
H     -0.447275    -0.239672    -1.771945
H     -1.033960    -1.576811    -0.830237
H      0.402019    -1.163216     1.036471
H      1.367687    -1.460841    -0.420955
H      2.533860     0.442455     0.768101
H      0.990106     1.103618     1.200255
H      1.561069     1.173445    -0.489394
14
Iteration 2, Energy=-157.2968947061, |grad|=0.053048
C     -1.604805     0.322960    -0.014892
C     -0.587031    -0.573460    -0.735738
C      0.716757    -0.729017     0.076921
C      1.499032     0.561631     0.401218
H     -1.070041     0.860683     0.771272
H     -2.406921    -0.239229     0.459813
H     -2.088567     1.049608    -0.669085
H     -0.441365    -0.237594    -1.768724
H     -1.030758    -1.576237    -0.831507
H      0.405130    -1.167817     1.036334
H      1.367686    -1.460633    -0.420341
H      2.528861     0.433894     0.765221
H      0.990148     1.107204     1.196609
H      1.561129     1.178769    -0.489985
14
Iteration 3, Energy=-157.3000821140, |grad|=0.042241
C     -1.601429     0.333619    -0.006333
C     -0.593705    -0.588032    -0.726085
C      0.715529    -0.734686     0.083799
C      1.483278     0.565026     0.388683
H     -1.103646     0.890697     0.778612
H     -2.401433    -0.254266     0.467097
H     -2.077851     1.058131    -0.675454
H     -0.407877    -0.227150    -1.747735
H     -1.017635    -1.581183    -0.839280
H      0.424116    -1.193954     1.036464
H      1.368258    -1.458549    -0.416846
H      2.501204     0.384673     0.748968
H      0.989119     1.129068     1.177456
H      1.561328     1.207367    -0.492229
14
Iteration 4, Energy=-157.3010761584, |grad|=0.029663
C     -1.603357     0.334542    -0.005033
C     -0.590840    -0.584676    -0.715697
C      0.711993    -0.740509     0.088176
C      1.473389     0.561367     0.380932
H     -1.125259     0.910010     0.783775
H     -2.397322    -0.258477     0.469842
H     -2.071579     1.057163    -0.677822
H     -0.385123    -0.220370    -1.730542
H     -1.013290    -1.586270    -0.845793
H      0.440318    -1.208344     1.036469
H      1.368140    -1.453347    -0.416104
H      2.484406     0.353358     0.737744
H      0.986588     1.144930     1.166840
H      1.561193     1.221386    -0.495671
14
Iteration 5, Energy=-157.3013749289, |grad|=0.038612
C     -1.610756     0.329789     0.001183
C     -0.585982    -0.588434    -0.706925
C      0.706354    -0.738186     0.087932
C      1.464445     0.566507     0.374151
H     -1.145134     0.926604     0.787560
H     -2.392701    -0.255532     0.468553
H     -2.070176     1.050602    -0.682896
H     -0.361532    -0.211221    -1.710700
H     -1.010111    -1.579074    -0.852158
H      0.457769    -1.222621     1.044640
H      1.369515    -1.447722    -0.421205
H      2.472290     0.326078     0.727755
H      0.985591     1.155217     1.154378
H      1.559683     1.218754    -0.495152
14
Iteration 6, Energy=-157.3017483358, |grad|=0.018304
C     -1.608909     0.330038    -0.002306
C     -0.585263    -0.581264    -0.705508
C      0.707597    -0.739805     0.090645
C      1.467084     0.562858     0.376564
H     -1.144847     0.925204     0.787061
H     -2.396728    -0.254769     0.469094
H     -2.072393     1.045522    -0.683254
H     -0.360768    -0.209732    -1.708710
H     -1.013027    -1.578894    -0.853228
H      0.460338    -1.220376     1.045041
H      1.369100    -1.444924    -0.423607
H      2.472823     0.328526     0.727588
H      0.984788     1.154962     1.155566
H      1.559462     1.213419    -0.497828
14
Iteration 7, Energy=-157.3020460242, |grad|=0.019195
C     -1.609395     0.329307    -0.003625
C     -0.584215    -0.575606    -0.701808
C      0.709595    -0.740952     0.094710
C      1.468562     0.558694     0.379221
H     -1.147041     0.924860     0.786057
H     -2.401786    -0.252014     0.468699
H     -2.077352     1.036289    -0.686317
H     -0.355558    -0.204297    -1.703531
H     -1.016629    -1.573545    -0.855706
H      0.467184    -1.218996     1.048146
H      1.368465    -1.439237    -0.429168
H      2.474677     0.329411     0.727105
H      0.983860     1.155109     1.155624
H      1.558889     1.201739    -0.502291
14
Iteration 8, Energy=-157.3024412377, |grad|=0.022278
C     -1.613146     0.330089    -0.002476
C     -0.581337    -0.569540    -0.693342
C      0.711222    -0.743162     0.101735
C      1.469735     0.553467     0.381734
H     -1.156109     0.929700     0.785007
H     -2.411276    -0.249799     0.469280
H     -2.087859     1.020053    -0.696117
H     -0.339986    -0.189465    -1.689603
H     -1.021830    -1.562639    -0.862149
H      0.483663    -1.222433     1.057239
H      1.367977    -1.428477    -0.440760
H      2.477337     0.325671     0.726038
H      0.982967     1.157484     1.152651
H      1.557899     1.179815    -0.512120
14
Iteration 9, Energy=-157.3026088390, |grad|=0.042598
C     -1.629285     0.326844    -0.001108
C     -0.588229    -0.563423    -0.685321
C      0.719076    -0.751445     0.116755
C      1.476283     0.547370     0.382810
H     -1.171326     0.946414     0.784875
H     -2.419183    -0.250811     0.471669
H     -2.105690     1.001957    -0.714011
H     -0.318278    -0.162252    -1.665548
H     -1.024774    -1.547666    -0.873266
H      0.506563    -1.235181     1.068257
H      1.366179    -1.416923    -0.454512
H      2.482602     0.325697     0.729890
H      0.986594     1.160196     1.145690
H      1.558725     1.149984    -0.529064
14
Iteration 10, Energy=-157.3029509950, |grad|=0.013889
C     -1.630816     0.332254     0.001514
C     -0.583263    -0.563261    -0.678373
C      0.715211    -0.750264     0.116047
C      1.475435     0.546466     0.381403
H     -1.180305     0.951110     0.781713
H     -2.422798    -0.253803     0.474148
H     -2.110482     0.996861    -0.718588
H     -0.310734    -0.153261    -1.657789
H     -1.025414    -1.545330    -0.877918
H      0.513861    -1.242538     1.073555
H      1.366642    -1.415585    -0.458244
H      2.484365     0.322923     0.730823
H      0.988154     1.162340     1.141830
H      1.559401     1.142850    -0.533002
14
Iteration 1, Energy=-157.3029575460, |grad|=0.014552
C     -1.630815     0.332060     0.000885
C     -0.583874    -0.565295    -0.677317
C      0.715245    -0.750275     0.116051
C      1.475733     0.546468     0.381634
H     -1.184492     0.954690     0.782303
H     -2.422793    -0.253768     0.473400
H     -2.110480     0.997083    -0.718586
H     -0.304809    -0.153261    -1.653503
H     -1.024692    -1.545382    -0.877916
H      0.515990    -1.243221     1.073808
H      1.366707    -1.415640    -0.458144
H      2.485222     0.322498     0.730941
H      0.988067     1.163375     1.140654
H      1.559510     1.142858    -0.533006
14
Iteration 2, Energy=-157.3029628956, |grad|=0.013155
C     -1.629756     0.332473     0.001387
C     -0.583039    -0.563804    -0.678292
C      0.714829    -0.749660     0.114887
C      1.475297     0.546869     0.381390
H     -1.181282     0.951865     0.781699
H     -2.422427    -0.253814     0.474003
H     -2.109570     0.997780    -0.717623
H     -0.310389    -0.154652    -1.658055
H     -1.025179    -1.546248    -0.877444
H      0.513060    -1.243311     1.073042
H      1.366739    -1.416380    -0.457446
H      2.484041     0.321995     0.730631
H      0.988083     1.162838     1.141275
H      1.559425     1.144363    -0.532023
14
Iteration -1, Energy=-157.3029628956, |grad|=0.013155
C     -1.629756     0.332473     0.001387
C     -0.583039    -0.563804    -0.678292
C      0.714829    -0.749660     0.114887
C      1.475297     0.546869     0.381390
H     -1.181282     0.951865     0.781699
H     -2.422427    -0.253814     0.474003
H     -2.109570     0.997780    -0.717623
H     -0.310389    -0.154652    -1.658055
H     -1.025179    -1.546248    -0.877444
H      0.513060    -1.243311     1.073042
H      1.366739    -1.416380    -0.457446
H      2.484041     0.321995     0.730631
H      0.988083     1.162838     1.141275
H      1.559425     1.144363    -0.532023
14
Iteration 1, Energy=-157.3030404179, |grad|=0.015640
C     -1.631359     0.332189     0.003927
C     -0.581047    -0.566341    -0.679172
C      0.713133    -0.750846     0.115202
C      1.475511     0.547911     0.379779
H     -1.184563     0.953758     0.778447
H     -2.419966    -0.254590     0.474786
H     -2.111255     0.998921    -0.717347
H     -0.313075    -0.153143    -1.656210
H     -1.022682    -1.544365    -0.878511
H      0.512221    -1.245608     1.070531
H      1.365644    -1.419465    -0.455456
H      2.485820     0.324519     0.732689
H      0.990130     1.162915     1.139615
H      1.561320     1.144460    -0.530850
14
Iteration 2, Energy=-157.3031187623, |grad|=0.011864
C     -1.631771     0.331633     0.002811
C     -0.580866    -0.565783    -0.678279
C      0.713387    -0.751427     0.114568
C      1.476588     0.547015     0.379600
H     -1.186917     0.956280     0.776673
H     -2.418800    -0.256070     0.476311
H     -2.112607     0.999113    -0.716450
H     -0.315156    -0.151511    -1.655223
H     -1.021033    -1.544257    -0.879878
H      0.511126    -1.247931     1.069076
H      1.364556    -1.422199    -0.453483
H      2.486573     0.326953     0.734170
H      0.991620     1.163426     1.138369
H      1.563135     1.145072    -0.530836
14
Iteration 3, Energy=-157.3032674879, |grad|=0.012864
C     -1.633927     0.330189     0.001505
C     -0.582487    -0.560609    -0.677982
C      0.716418    -0.752645     0.116312
C      1.482450     0.543752     0.378375
H     -1.197021     0.967929     0.768860
H     -2.413832    -0.263054     0.483578
H     -2.120438     0.997489    -0.714145
H     -0.323037    -0.142836    -1.652228
H     -1.014344    -1.545110    -0.886235
H      0.505627    -1.257494     1.063330
H      1.360946    -1.436176    -0.447127
H      2.490670     0.336659     0.740791
H      0.996808     1.166067     1.133165
H      1.572000     1.146152    -0.530770
14
Iteration 4, Energy=-157.3032977938, |grad|=0.018956
C     -1.638227     0.330703     0.001115
C     -0.580828    -0.560791    -0.675866
C      0.716870    -0.754545     0.111821
C      1.485966     0.544529     0.380534
H     -1.200433     0.974933     0.766637
H     -2.411322    -0.266535     0.487998
H     -2.126506     0.992878    -0.713621
H     -0.324780    -0.135829    -1.654001
H     -1.011219    -1.543531    -0.889384
H      0.502069    -1.261196     1.063891
H      1.358355    -1.441807    -0.444289
H      2.494146     0.339912     0.744212
H      0.998442     1.167106     1.129914
H      1.577301     1.144486    -0.531530
14
Iteration 5, Energy=-157.3033519475, |grad|=0.009610
C     -1.637142     0.330571     0.002051
C     -0.581013    -0.559881    -0.677396
C      0.716690    -0.754192     0.113659
C      1.485644     0.544107     0.379959
H     -1.199556     0.973977     0.767259
H     -2.412011    -0.266062     0.487810
H     -2.126813     0.992254    -0.714483
H     -0.323807    -0.136434    -1.653891
H     -1.012032    -1.543466    -0.888941
H      0.502591    -1.259527     1.063996
H      1.358963    -1.440732    -0.445506
H      2.494031     0.338637     0.743752
H      0.997400     1.167204     1.130704
H      1.576889     1.143859    -0.531543
14
Iteration 6, Energy=-157.3034169047, |grad|=0.007412
C     -1.637200     0.330409     0.003750
C     -0.580705    -0.557576    -0.679503
C      0.716878    -0.754301     0.115312
C      1.487054     0.543212     0.379982
H     -1.200169     0.976432     0.766765
H     -2.411619    -0.267322     0.490498
H     -2.131736     0.987598    -0.715927
H     -0.322844    -0.133177    -1.654334
H     -1.011706    -1.542030    -0.890226
H      0.501382    -1.258092     1.064241
H      1.358566    -1.442064    -0.446273
H      2.495899     0.337929     0.745101
H      0.996359     1.168006     1.130087
H      1.579674     1.141290    -0.532043
14
Iteration 7, Energy=-157.3035247582, |grad|=0.014704
C     -1.638990     0.329844     0.006764
C     -0.579442    -0.552230    -0.682647
C      0.717550    -0.754855     0.116960
C      1.491535     0.541023     0.380807
H     -1.203569     0.984757     0.763821
H     -2.408783    -0.271526     0.498710
H     -2.145648     0.974759    -0.718409
H     -0.321445    -0.122928    -1.655151
H     -1.009525    -1.537392    -0.894891
H      0.497132    -1.256181     1.064626
H      1.356340    -1.447029    -0.446347
H      2.500884     0.337593     0.749775
H      0.995299     1.169882     1.126734
H      1.588495     1.134596    -0.533324
14
Iteration 8, Energy=-157.3037013435, |grad|=0.021647
C     -1.643013     0.328333     0.010421
C     -0.576903    -0.542564    -0.685944
C      0.718501    -0.755199     0.118299
C      1.499640     0.536747     0.382310
H     -1.211356     1.000079     0.755943
H     -2.400934    -0.279406     0.514789
H     -2.171703     0.950132    -0.721248
H     -0.318936    -0.103686    -1.654670
H     -1.005088    -1.527169    -0.904823
H      0.489067    -1.252618     1.064873
H      1.351473    -1.455185    -0.445008
H      2.508265     0.336607     0.759081
H      0.995159     1.172343     1.118862
H      1.605662     1.121900    -0.535455
14
Iteration 9, Energy=-157.3041107852, |grad|=0.031002
C     -1.652641     0.323460     0.016000
C     -0.571688    -0.520487    -0.690441
C      0.718741    -0.754045     0.120716
C      1.516806     0.526356     0.383904
H     -1.230998     1.033859     0.732419
H     -2.376917    -0.298269     0.553934
H     -2.231250     0.892733    -0.725053
H     -0.310904    -0.059873    -1.648363
H     -0.996034    -1.501344    -0.930484
H      0.471551    -1.242318     1.065804
H      1.340120    -1.468597    -0.440597
H      2.519350     0.329185     0.781582
H      0.997639     1.176689     1.099384
H      1.646058     1.092966    -0.541377
14
Iteration 10, Energy=-157.3047334311, |grad|=0.047746
C     -1.673364     0.316113     0.020991
C     -0.565542    -0.480587    -0.700238
C      0.716220    -0.752042     0.126974
C      1.543192     0.510258     0.384578
H     -1.271361     1.097682     0.679171
H     -2.321958    -0.336773     0.632464
H     -2.338254     0.780852    -0.724004
H     -0.291531     0.024656    -1.630284
H     -0.981152    -1.452695    -0.984246
H      0.441129    -1.220940     1.070097
H      1.318204    -1.486631    -0.430941
H      2.532416     0.303631     0.826087
H      1.007354     1.186566     1.061036
H      1.724481     1.040224    -0.554256
14
Iteration 1, Energy=-157.3046555201, |grad|=0.051654
C     -1.673479     0.316344     0.020183
C     -0.566350    -0.480145    -0.699328
C      0.715488    -0.752020     0.128051
C      1.543568     0.509939     0.383415
H     -1.273983     1.099683     0.678822
H     -2.322093    -0.337655     0.633011
H     -2.338811     0.780661    -0.723998
H     -0.291144     0.025655    -1.630482
H     -0.980753    -1.452709    -0.984843
H      0.441575    -1.225188     1.067111
H      1.317888    -1.484530    -0.435057
H      2.532001     0.307788     0.826760
H      1.003855     1.187435     1.060583
H      1.725147     1.040242    -0.554254
14
Iteration 2, Energy=-157.3047330048, |grad|=0.047435
C     -1.673407     0.316160     0.020949
C     -0.565560    -0.480751    -0.700086
C      0.716235    -0.752036     0.126946
C      1.543183     0.510327     0.384539
H     -1.271262     1.097606     0.679443
H     -2.322228    -0.336657     0.632174
H     -2.337875     0.781278    -0.723869
H     -0.291628     0.024490    -1.630449
H     -0.981185    -1.452990    -0.984051
H      0.441257    -1.221096     1.070066
H      1.318266    -1.486641    -0.431114
H      2.532487     0.303730     0.825927
H      1.007281     1.186585     1.061159
H      1.724201     1.040524    -0.554188
14
Iteration -1, Energy=-157.3047330048, |grad|=0.047435
C     -1.673407     0.316160     0.020949
C     -0.565560    -0.480751    -0.700086
C      0.716235    -0.752036     0.126946
C      1.543183     0.510327     0.384539
H     -1.271262     1.097606     0.679443
H     -2.322228    -0.336657     0.632174
H     -2.337875     0.781278    -0.723869
H     -0.291628     0.024490    -1.630449
H     -0.981185    -1.452990    -0.984051
H      0.441257    -1.221096     1.070066
H      1.318266    -1.486641    -0.431114
H      2.532487     0.303730     0.825927
H      1.007281     1.186585     1.061159
H      1.724201     1.040524    -0.554188
14
Iteration 1, Energy=-157.3052168084, |grad|=0.024520
C     -1.676391     0.313912     0.019513
C     -0.565137    -0.484115    -0.692919
C      0.714269    -0.749919     0.118673
C      1.544759     0.510318     0.386567
H     -1.273258     1.096485     0.675937
H     -2.316435    -0.334321     0.630737
H     -2.335109     0.781521    -0.720041
H     -0.290860     0.025034    -1.630118
H     -0.981351    -1.451965    -0.986045
H      0.441229    -1.222781     1.072856
H      1.317219    -1.484032    -0.428517
H      2.526813     0.302417     0.825316
H      1.009991     1.186551     1.059610
H      1.724027     1.041424    -0.554122
14
Iteration 2, Energy=-157.3054381635, |grad|=0.020457
C     -1.675836     0.312255     0.019033
C     -0.565753    -0.484948    -0.691178
C      0.712029    -0.748713     0.118418
C      1.543654     0.510553     0.384980
H     -1.275820     1.095055     0.671580
H     -2.311340    -0.333231     0.630689
H     -2.333094     0.782313    -0.717201
H     -0.290886     0.024269    -1.626935
H     -0.981591    -1.451459    -0.988247
H      0.442397    -1.223081     1.072316
H      1.316823    -1.481912    -0.427019
H      2.522283     0.299842     0.825739
H      1.012796     1.187093     1.058509
H      1.724102     1.042494    -0.553238
14
Iteration 3, Energy=-157.3057968896, |grad|=0.021629
C     -1.669741     0.307072     0.012573
C     -0.569799    -0.488930    -0.688919
C      0.707499    -0.745416     0.119336
C      1.535583     0.509303     0.381157
H     -1.281355     1.095251     0.658927
H     -2.296577    -0.335713     0.636992
H     -2.328721     0.785772    -0.710046
H     -0.290136     0.022812    -1.615587
H     -0.982972    -1.450577    -0.997173
H      0.446612    -1.224013     1.072027
H      1.314855    -1.473242    -0.422106
H      2.507076     0.286970     0.828302
H      1.021904     1.192547     1.055975
H      1.725539     1.048694    -0.554013
14
Iteration 4, Energy=-157.3058772632, |grad|=0.029572
C     -1.672116     0.303462     0.017893
C     -0.566701    -0.492453    -0.691575
C      0.698627    -0.745361     0.123263
C      1.534001     0.513813     0.375667
H     -1.280537     1.098201     0.650321
H     -2.284171    -0.337918     0.642067
H     -2.329480     0.787530    -0.709783
H     -0.287803     0.023846    -1.610689
H     -0.985465    -1.453117    -1.005122
H      0.449793    -1.224056     1.072950
H      1.315735    -1.468749    -0.421487
H      2.495808     0.274372     0.830273
H      1.025659     1.199887     1.056245
H      1.726416     1.051074    -0.552577
14
Iteration 5, Energy=-157.3060138532, |grad|=0.011835
C     -1.671007     0.305444     0.016012
C     -0.569009    -0.491807    -0.691820
C      0.701669    -0.745483     0.122788
C      1.532810     0.513168     0.377801
H     -1.279046     1.098853     0.651986
H     -2.286876    -0.339371     0.643453
H     -2.330368     0.786157    -0.710364
H     -0.287297     0.024577    -1.612563
H     -0.985200    -1.453238    -1.004562
H      0.449021    -1.223965     1.073757
H      1.315713    -1.469355    -0.421894
H      2.497877     0.274872     0.830174
H      1.024756     1.199841     1.056304
H      1.726721     1.050838    -0.553625
14
Iteration 6, Energy=-157.3060859286, |grad|=0.007622
C     -1.670914     0.306098     0.015546
C     -0.570772    -0.492054    -0.692984
C      0.701969    -0.745307     0.122940
C      1.531035     0.513635     0.378957
H     -1.276251     1.101050     0.650794
H     -2.285214    -0.341650     0.647247
H     -2.332171     0.784372    -0.710801
H     -0.285582     0.026020    -1.613337
H     -0.985839    -1.454211    -1.007081
H      0.449079    -1.223829     1.075460
H      1.316108    -1.468341    -0.422136
H      2.495970     0.270625     0.830686
H      1.024813     1.202922     1.056516
H      1.727536     1.051201    -0.554361
14
Iteration 7, Energy=-157.3061579247, |grad|=0.009441
C     -1.671159     0.306306     0.015924
C     -0.572784    -0.492599    -0.695067
C      0.700231    -0.744756     0.123160
C      1.528492     0.514828     0.380164
H     -1.271544     1.104168     0.646693
H     -2.279917    -0.344176     0.653744
H     -2.335796     0.780348    -0.710582
H     -0.282657     0.028326    -1.613826
H     -0.986984    -1.455127    -1.012342
H      0.449388    -1.223231     1.077813
H      1.316900    -1.465887    -0.422206
H      2.491180     0.262438     0.831769
H      1.025370     1.208693     1.056583
H      1.729046     1.051200    -0.554381
14
Iteration 8, Energy=-157.3062602901, |grad|=0.011002
C     -1.670660     0.304957     0.015929
C     -0.574086    -0.491569    -0.698229
C      0.697188    -0.743581     0.122962
C      1.525386     0.514916     0.382513
H     -1.264072     1.107460     0.639553
H     -2.271535    -0.344156     0.662891
H     -2.343836     0.770691    -0.708365
H     -0.279621     0.031291    -1.614736
H     -0.988019    -1.453596    -1.019477
H      0.448316    -1.221132     1.078924
H      1.317542    -1.462082    -0.421733
H      2.485866     0.253223     0.833830
H      1.025509     1.215413     1.055974
H      1.731787     1.048695    -0.552589
14
Iteration 9, Energy=-157.3063498536, |grad|=0.019438
C     -1.668343     0.307123     0.017283
C     -0.575124    -0.492687    -0.702651
C      0.692546    -0.741436     0.123064
C      1.523229     0.515970     0.385130
H     -1.255549     1.110312     0.625558
H     -2.258121    -0.344071     0.677712
H     -2.356866     0.755129    -0.703856
H     -0.276199     0.036868    -1.616784
H     -0.988690    -1.449746    -1.029912
H      0.444472    -1.218524     1.079217
H      1.318022    -1.457035    -0.420900
H      2.478169     0.242020     0.838304
H      1.025827     1.222613     1.054669
H      1.736394     1.043993    -0.549387
14
Iteration 10, Energy=-157.3064967011, |grad|=0.011059
C     -1.667505     0.302753     0.016593
C     -0.574916    -0.488443    -0.707268
C      0.688344    -0.739326     0.122214
C      1.520481     0.514896     0.388721
H     -1.245231     1.115300     0.611690
H     -2.242401    -0.340030     0.692313
H     -2.372282     0.736400    -0.697535
H     -0.273880     0.041820    -1.618335
H     -0.989488    -1.445146    -1.040639
H      0.438965    -1.215123     1.077964
H      1.318008    -1.451774    -0.419346
H      2.471981     0.232764     0.843798
H      1.025681     1.228665     1.052860
H      1.742008     1.037775    -0.545582
14
Iteration 1, Energy=-157.3064989383, |grad|=0.015878
C     -1.666692     0.303198     0.017004
C     -0.575310    -0.488000    -0.707269
C      0.688351    -0.738932     0.122213
C      1.518650     0.515024     0.388717
H     -1.245189     1.115299     0.605942
H     -2.237114    -0.338943     0.692557
H     -2.372627     0.736034    -0.697881
H     -0.273883     0.042182    -1.619671
H     -0.989487    -1.442364    -1.042853
H      0.437233    -1.215126     1.077924
H      1.318035    -1.450468    -0.419032
H      2.472043     0.232331     0.843920
H      1.025778     1.228812     1.052819
H      1.742261     1.034192    -0.545557
14
Iteration 2, Energy=-157.3065183303, |grad|=0.010408
C     -1.667207     0.302190     0.016519
C     -0.574714    -0.487902    -0.706430
C      0.689183    -0.739334     0.121931
C      1.520288     0.514275     0.388291
H     -1.246415     1.116317     0.610474
H     -2.240882    -0.339084     0.691513
H     -2.369765     0.738744    -0.697646
H     -0.274735     0.040900    -1.617928
H     -0.989957    -1.444704    -1.040990
H      0.438703    -1.215494     1.077536
H      1.317280    -1.451665    -0.418999
H      2.472544     0.233859     0.844331
H      1.025860     1.227813     1.051936
H      1.742677     1.038110    -0.545652
14
Iteration -1, Energy=-157.3065183303, |grad|=0.010408
C     -1.667207     0.302190     0.016519
C     -0.574714    -0.487902    -0.706430
C      0.689183    -0.739334     0.121931
C      1.520288     0.514275     0.388291
H     -1.246415     1.116317     0.610474
H     -2.240882    -0.339084     0.691513
H     -2.369765     0.738744    -0.697646
H     -0.274735     0.040900    -1.617928
H     -0.989957    -1.444704    -1.040990
H      0.438703    -1.215494     1.077536
H      1.317280    -1.451665    -0.418999
H      2.472544     0.233859     0.844331
H      1.025860     1.227813     1.051936
H      1.742677     1.038110    -0.545652
14
Iteration 1, Energy=-157.3065799716, |grad|=0.015037
C     -1.667359     0.302134     0.015463
C     -0.573249    -0.488919    -0.707474
C      0.686766    -0.739393     0.122966
C      1.524524     0.513679     0.386779
H     -1.249337     1.118387     0.608396
H     -2.238195    -0.338533     0.693338
H     -2.371039     0.737787    -0.695982
H     -0.276699     0.042372    -1.617505
H     -0.988509    -1.443537    -1.040051
H      0.435871    -1.216274     1.075091
H      1.317670    -1.454346    -0.419381
H      2.473000     0.238154     0.846961
H      1.025350     1.224610     1.052484
H      1.744068     1.037904    -0.546199
14
Iteration 2, Energy=-157.3066525861, |grad|=0.011417
C     -1.666956     0.301696     0.014948
C     -0.572846    -0.488111    -0.707679
C      0.687760    -0.740058     0.121839
C      1.525577     0.513244     0.386366
H     -1.252011     1.120451     0.606255
H     -2.235580    -0.338049     0.695134
H     -2.372761     0.736848    -0.694891
H     -0.278290     0.043815    -1.617468
H     -0.987396    -1.443325    -1.039534
H      0.432773    -1.217287     1.073729
H      1.316949    -1.456108    -0.418871
H      2.474603     0.241778     0.849811
H      1.025351     1.221292     1.052396
H      1.745687     1.037839    -0.547148
14
Iteration 3, Energy=-157.3067894336, |grad|=0.010812
C     -1.666983     0.302483     0.016125
C     -0.571407    -0.483256    -0.708624
C      0.693615    -0.741822     0.119665
C      1.529843     0.508309     0.384955
H     -1.261424     1.130173     0.596812
H     -2.224453    -0.337175     0.703652
H     -2.381186     0.730333    -0.691874
H     -0.283639     0.050683    -1.619825
H     -0.983318    -1.443444    -1.038607
H      0.420974    -1.220055     1.066900
H      1.314257    -1.464943    -0.417819
H      2.480906     0.255487     0.860161
H      1.023025     1.210633     1.052182
H      1.752651     1.036618    -0.548816
14
Iteration 4, Energy=-157.3068184436, |grad|=0.017215
C     -1.668129     0.302546     0.014901
C     -0.570024    -0.481182    -0.709492
C      0.693883    -0.744795     0.114852
C      1.532549     0.510339     0.388335
H     -1.264185     1.138902     0.592676
H     -2.218321    -0.337631     0.710389
H     -2.386746     0.723431    -0.690330
H     -0.285690     0.054673    -1.621821
H     -0.980656    -1.441002    -1.038275
H      0.416015    -1.220792     1.064441
H      1.312621    -1.470288    -0.417521
H      2.483930     0.260572     0.864323
H      1.021194     1.205182     1.049461
H      1.756422     1.034069    -0.547054
14
Iteration 5, Energy=-157.3068682286, |grad|=0.008648
C     -1.667542     0.302985     0.016192
C     -0.570376    -0.480724    -0.710123
C      0.694031    -0.743831     0.115952
C      1.532021     0.508864     0.387816
H     -1.263635     1.138659     0.592403
H     -2.218362    -0.337666     0.710469
H     -2.387242     0.722567    -0.690959
H     -0.285177     0.054432    -1.621923
H     -0.980969    -1.440733    -1.038727
H      0.416969    -1.220314     1.064488
H      1.312812    -1.470322    -0.417962
H      2.483732     0.259210     0.863739
H      1.020258     1.206992     1.049769
H      1.756341     1.033907    -0.546248
14
Iteration 6, Energy=-157.3069242068, |grad|=0.006911
C     -1.667187     0.304093     0.017985
C     -0.570240    -0.478610    -0.711390
C      0.694429    -0.743392     0.115990
C      1.532120     0.506547     0.388660
H     -1.263761     1.142500     0.589467
H     -2.214972    -0.337765     0.714134
H     -2.390968     0.716565    -0.691133
H     -0.284910     0.056064    -1.623322
H     -0.980561    -1.438821    -1.039847
H      0.416803    -1.219499     1.063328
H      1.312252    -1.472724    -0.418743
H      2.484436     0.258279     0.864496
H      1.017256     1.208415     1.048936
H      1.758164     1.032372    -0.543675
14
Iteration 7, Energy=-157.3069875665, |grad|=0.010680
C     -1.666864     0.305442     0.019724
C     -0.569387    -0.474959    -0.712977
C      0.694854    -0.743765     0.114861
C      1.532912     0.503892     0.390777
H     -1.265183     1.150407     0.583049
H     -2.207084    -0.337284     0.721615
H     -2.398064     0.704818    -0.690154
H     -0.284956     0.059814    -1.625638
H     -0.979635    -1.434842    -1.041892
H      0.415331    -1.218585     1.061023
H      1.310643    -1.476886    -0.419708
H      2.485537     0.257482     0.867217
H      1.012560     1.208827     1.046748
H      1.762198     1.029663    -0.539761
14
Iteration 8, Energy=-157.3071097866, |grad|=0.014238
C     -1.665481     0.306870     0.021244
C     -0.567494    -0.468916    -0.715389
C      0.695169    -0.744089     0.112836
C      1.534170     0.500254     0.394036
H     -1.269383     1.164726     0.568562
H     -2.189356    -0.334790     0.736531
H     -2.411543     0.681439    -0.686533
H     -0.284695     0.067413    -1.628204
H     -0.979081    -1.426565    -1.046915
H      0.412360    -1.217890     1.057764
H      1.307149    -1.482112    -0.421328
H      2.485016     0.254142     0.874128
H      1.005551     1.208112     1.042263
H      1.770478     1.025430    -0.534108
14
Iteration 9, Energy=-157.3073756406, |grad|=0.025983
C     -1.662805     0.306896     0.024058
C     -0.563883    -0.453336    -0.721747
C      0.693193    -0.747529     0.108767
C      1.536864     0.492489     0.398107
H     -1.281295     1.204465     0.525156
H     -2.136261    -0.327080     0.779904
H     -2.448856     0.619037    -0.676402
H     -0.280964     0.089416    -1.630586
H     -0.980686    -1.407138    -1.064001
H      0.405125    -1.216971     1.050222
H      1.299077    -1.488589    -0.425650
H      2.477391     0.240514     0.897403
H      0.991910     1.206265     1.032697
H      1.794051     1.015583    -0.523043
14
Iteration 10, Energy=-157.3075021870, |grad|=0.036788
C     -1.660873     0.314491     0.025963
C     -0.561295    -0.441654    -0.730020
C      0.690134    -0.743582     0.100216
C      1.537061     0.481289     0.408090
H     -1.301259     1.252393     0.459205
H     -2.059992    -0.314895     0.840702
H     -2.496278     0.531487    -0.657033
H     -0.273420     0.121106    -1.630867
H     -0.983765    -1.378236    -1.089593
H      0.395191    -1.218462     1.044490
H      1.289965    -1.494139    -0.432924
H      2.460949     0.218193     0.930528
H      0.978972     1.202525     1.018589
H      1.827470     1.003508    -0.512458
14
Iteration 1, Energy=-157.3074781185, |grad|=0.041152
C     -1.660890     0.315488     0.024096
C     -0.562016    -0.442840    -0.730605
C      0.688686    -0.743690     0.100001
C      1.537689     0.481298     0.408273
H     -1.301261     1.251273     0.458928
H     -2.060530    -0.314898     0.841220
H     -2.499119     0.531825    -0.656309
H     -0.272938     0.124191    -1.630600
H     -0.985286    -1.378273    -1.089556
H      0.392428    -1.219593     1.046979
H      1.290231    -1.490556    -0.432933
H      2.462787     0.217943     0.935750
H      0.979709     1.200606     1.018605
H      1.829683     1.003527    -0.512757
14
Iteration 2, Energy=-157.3075245873, |grad|=0.035314
C     -1.660852     0.314362     0.025741
C     -0.561418    -0.442004    -0.729810
C      0.690123    -0.743646     0.100337
C      1.537116     0.481639     0.407824
H     -1.300828     1.251434     0.460456
H     -2.061343    -0.314924     0.839417
H     -2.494663     0.532260    -0.657349
H     -0.273623     0.120003    -1.630822
H     -0.983756    -1.378586    -1.089759
H      0.394877    -1.218684     1.044799
H      1.290207    -1.493694    -0.432779
H      2.461388     0.218811     0.929984
H      0.979295     1.202292     1.018839
H      1.826399     1.003352    -0.512699
14
Iteration -1, Energy=-157.3075245873, |grad|=0.035314
C     -1.660852     0.314362     0.025741
C     -0.561418    -0.442004    -0.729810
C      0.690123    -0.743646     0.100337
C      1.537116     0.481639     0.407824
H     -1.300828     1.251434     0.460456
H     -2.061343    -0.314924     0.839417
H     -2.494663     0.532260    -0.657349
H     -0.273623     0.120003    -1.630822
H     -0.983756    -1.378586    -1.089759
H      0.394877    -1.218684     1.044799
H      1.290207    -1.493694    -0.432779
H      2.461388     0.218811     0.929984
H      0.979295     1.202292     1.018839
H      1.826399     1.003352    -0.512699
14
Iteration 1, Energy=-157.3077618759, |grad|=0.016292
C     -1.662765     0.310246     0.024960
C     -0.561475    -0.439084    -0.729540
C      0.689410    -0.747229     0.100206
C      1.537738     0.485753     0.406514
H     -1.302083     1.250902     0.459474
H     -2.059727    -0.311761     0.837293
H     -2.492771     0.533252    -0.654660
H     -0.273802     0.119569    -1.629017
H     -0.984366    -1.380756    -1.090382
H      0.394636    -1.218830     1.044014
H      1.290222    -1.491645    -0.432249
H      2.460082     0.218794     0.930904
H      0.981647     1.200939     1.018837
H      1.826176     1.002462    -0.512175
14
Iteration 2, Energy=-157.3078653805, |grad|=0.013234
C     -1.662686     0.308386     0.024060
C     -0.562605    -0.439693    -0.729253
C      0.688715    -0.747541     0.100250
C      1.538166     0.486986     0.405537
H     -1.304546     1.248777     0.457485
H     -2.058312    -0.308881     0.835953
H     -2.491365     0.534721    -0.651769
H     -0.273775     0.119810    -1.627163
H     -0.984465    -1.382060    -1.090916
H      0.394045    -1.219595     1.043586
H      1.290987    -1.489768    -0.432294
H      2.458106     0.219123     0.932077
H      0.984332     1.200201     1.019569
H      1.826326     1.002148    -0.512942
14
Iteration 3, Energy=-157.3079898228, |grad|=0.008894
C     -1.660813     0.305484     0.021194
C     -0.563570    -0.442596    -0.729474
C      0.687333    -0.746551     0.100524
C      1.537335     0.486930     0.403472
H     -1.309459     1.245150     0.452807
H     -2.056349    -0.304341     0.836107
H     -2.490805     0.538847    -0.646756
H     -0.273900     0.120506    -1.622474
H     -0.984719    -1.385726    -1.092587
H      0.392637    -1.221783     1.042648
H      1.293225    -1.484945    -0.432870
H      2.454093     0.219517     0.935407
H      0.990620     1.200159     1.022315
H      1.827294     1.001962    -0.516132
14
Iteration 4, Energy=-157.3080177462, |grad|=0.014454
C     -1.662525     0.303890     0.021461
C     -0.565092    -0.449656    -0.730051
C      0.686324    -0.746843     0.100584
C      1.538443     0.488227     0.403163
H     -1.310485     1.245280     0.448611
H     -2.055122    -0.302081     0.838551
H     -2.493409     0.542301    -0.645061
H     -0.273057     0.122253    -1.620864
H     -0.983497    -1.388305    -1.094366
H      0.391589    -1.224105     1.041403
H      1.295945    -1.479832    -0.433998
H      2.449818     0.218777     0.937533
H      0.996018     1.202308     1.025086
H      1.827970     1.000400    -0.517874
14
Iteration 5, Energy=-157.3080567636, |grad|=0.005559
C     -1.662242     0.304125     0.020670
C     -0.565055    -0.448403    -0.730336
C      0.686398    -0.745861     0.100812
C      1.536942     0.487537     0.403213
H     -1.310291     1.245216     0.447405
H     -2.055431    -0.302169     0.840188
H     -2.494414     0.542777    -0.644794
H     -0.273220     0.121858    -1.619861
H     -0.983597    -1.390274    -1.095370
H      0.391483    -1.224918     1.041283
H      1.297004    -1.478955    -0.434558
H      2.449741     0.218182     0.938302
H      0.997209     1.203340     1.025723
H      1.828394     1.000159    -0.518495
14
Iteration 6, Energy=-157.3080749832, |grad|=0.004334
C     -1.663086     0.304343     0.020621
C     -0.565564    -0.448255    -0.730680
C      0.686262    -0.745362     0.100900
C      1.536068     0.487383     0.403816
H     -1.309105     1.245899     0.445780
H     -2.055749    -0.302229     0.842303
H     -2.496243     0.543014    -0.644883
H     -0.273232     0.121618    -1.619470
H     -0.983070    -1.391991    -1.096521
H      0.391542    -1.226020     1.040887
H      1.298403    -1.477439    -0.435316
H      2.449376     0.217077     0.938871
H      0.998516     1.205268     1.026473
H      1.828804     0.999307    -0.518600
14
Iteration 7, Energy=-157.3080927602, |grad|=0.004859
C     -1.664568     0.304403     0.020750
C     -0.566782    -0.448583    -0.730914
C      0.685619    -0.744932     0.100855
C      1.535308     0.487656     0.405014
H     -1.307314     1.246514     0.442923
H     -2.055947    -0.301417     0.844789
H     -2.498751     0.542811    -0.644422
H     -0.273456     0.121223    -1.619216
H     -0.981878    -1.393715    -1.098025
H      0.391844    -1.227822     1.040053
H      1.300330    -1.474700    -0.436387
H      2.448715     0.215189     0.939552
H      1.000412     1.208276     1.027344
H      1.829390     0.997709    -0.518137
14
Iteration 8, Energy=-157.3081177448, |grad|=0.004709
C     -1.665993     0.303786     0.020457
C     -0.568213    -0.448923    -0.731197
C      0.684526    -0.743589     0.101105
C      1.534505     0.487643     0.407643
H     -1.304457     1.246809     0.437642
H     -2.055958    -0.298072     0.847631
H     -2.502551     0.540378    -0.642407
H     -0.275194     0.120110    -1.619374
H     -0.979879    -1.394628    -1.099692
H      0.392907    -1.231260     1.038294
H      1.302199    -1.469397    -0.438151
H      2.447785     0.211530     0.940301
H      1.002586     1.213213     1.027924
H      1.830659     0.995014    -0.515997
14
Iteration 9, Energy=-157.3081235168, |grad|=0.005210
C     -1.666012     0.304363     0.020066
C     -0.568629    -0.449296    -0.730640
C      0.684035    -0.743544     0.100908
C      1.534173     0.488645     0.408579
H     -1.303862     1.246737     0.435318
H     -2.055700    -0.296806     0.849026
H     -2.503904     0.538975    -0.641597
H     -0.275973     0.120164    -1.620039
H     -0.979420    -1.395171    -1.100086
H      0.393199    -1.232675     1.037681
H      1.302617    -1.467291    -0.439024
H      2.447492     0.210043     0.941088
H      1.003513     1.214353     1.027954
H      1.831393     0.994115    -0.515052
14
Iteration 10, Energy=-157.3081326486, |grad|=0.002617
C     -1.666417     0.303665     0.019930
C     -0.569099    -0.449638    -0.730871
C      0.683496    -0.742839     0.101153
C      1.534370     0.488653     0.409900
H     -1.302889     1.246962     0.432396
H     -2.055087    -0.294197     0.849936
H     -2.505482     0.536815    -0.640212
H     -0.277375     0.119735    -1.620484
H     -0.978705    -1.395065    -1.100296
H      0.393787    -1.234561     1.036682
H      1.302957    -1.464455    -0.440162
H      2.446791     0.208190     0.941730
H      1.004203     1.216315     1.028092
H      1.832370     0.993032    -0.513614
14
Iteration 1, Energy=-157.3081239377, |grad|=0.010014
C     -1.666466     0.303730     0.019827
C     -0.569502    -0.450595    -0.729974
C      0.682909    -0.742492     0.100883
C      1.532379     0.488065     0.410702
H     -1.303409     1.247141     0.425983
H     -2.052978    -0.292044     0.852661
H     -2.507679     0.534209    -0.638431
H     -0.278153     0.120200    -1.620009
H     -0.978003    -1.396104    -1.100897
H      0.394043    -1.236234     1.035987
H      1.303667    -1.463534    -0.440746
H      2.446904     0.207062     0.944120
H      1.004149     1.216338     1.027932
H      1.833826     0.991481    -0.513063
14
Iteration 2, Energy=-157.3081136837, |grad|=0.009516
C     -1.667939     0.303333     0.019616
C     -0.569643    -0.449939    -0.732175
C      0.683591    -0.742385     0.101549
C      1.535769     0.489267     0.411368
H     -1.299352     1.250656     0.430391
H     -2.054097    -0.293074     0.852616
H     -2.508712     0.533807    -0.639488
H     -0.278182     0.119997    -1.621540
H     -0.977928    -1.394534    -1.101021
H      0.394610    -1.235945     1.035966
H      1.303563    -1.461901    -0.441571
H      2.446324     0.205587     0.942229
H      1.004886     1.219348     1.028136
H      1.833645     0.991844    -0.512300
14
Iteration -1, Energy=-157.3081326486, |grad|=0.002617
C     -1.666417     0.303665     0.019930
C     -0.569099    -0.449638    -0.730871
C      0.683496    -0.742839     0.101153
C      1.534370     0.488653     0.409900
H     -1.302889     1.246962     0.432396
H     -2.055087    -0.294197     0.849936
H     -2.505482     0.536815    -0.640212
H     -0.277375     0.119735    -1.620484
H     -0.978705    -1.395065    -1.100296
H      0.393787    -1.234561     1.036682
H      1.302957    -1.464455    -0.440162
H      2.446791     0.208190     0.941730
H      1.004203     1.216315     1.028092
H      1.832370     0.993032    -0.513614
14
Iteration 1, Energy=-157.3081358883, |grad|=0.002926
C     -1.666559     0.303251     0.020109
C     -0.569153    -0.449744    -0.731325
C      0.683727    -0.742777     0.101131
C      1.534852     0.488285     0.409829
H     -1.303239     1.247645     0.432189
H     -2.054377    -0.293734     0.849923
H     -2.505331     0.536236    -0.640267
H     -0.277637     0.119816    -1.620564
H     -0.978984    -1.394924    -1.099749
H      0.393735    -1.234615     1.036576
H      1.302736    -1.464509    -0.440549
H      2.446439     0.208324     0.942183
H      1.003919     1.215959     1.028293
H      1.832793     0.993400    -0.513598
14
Iteration 2, Energy=-157.3081402279, |grad|=0.003229
C     -1.666355     0.303299     0.020066
C     -0.569131    -0.449696    -0.731483
C      0.683936    -0.742821     0.100886
C      1.535134     0.488186     0.409725
H     -1.303873     1.248332     0.431730
H     -2.053480    -0.293325     0.850249
H     -2.505206     0.535341    -0.640347
H     -0.278019     0.119968    -1.620808
H     -0.979443    -1.394919    -1.099061
H      0.393682    -1.234675     1.036387
H      1.302432    -1.464612    -0.441105
H      2.446179     0.208418     0.942971
H      1.003640     1.215258     1.028430
H      1.833427     0.993861    -0.513460
14
Iteration 3, Energy=-157.3081602725, |grad|=0.005693
C     -1.664702     0.304557     0.020437
C     -0.568273    -0.448385    -0.731676
C      0.684520    -0.742745     0.098606
C      1.536843     0.487152     0.409370
H     -1.308619     1.253764     0.427168
H     -2.046378    -0.290322     0.853485
H     -2.505329     0.527988    -0.641269
H     -0.281080     0.120259    -1.622833
H     -0.982871    -1.394882    -1.094077
H      0.393956    -1.234733     1.033771
H      1.300835    -1.466074    -0.445829
H      2.444499     0.208855     0.948901
H      1.001056     1.210301     1.029243
H      1.838465     0.996877    -0.511117
14
Iteration 4, Energy=-157.3081683604, |grad|=0.004284
C     -1.664412     0.305368     0.019885
C     -0.568901    -0.448181    -0.731734
C      0.686098    -0.743276     0.096719
C      1.537065     0.487013     0.409841
H     -1.310570     1.256677     0.424802
H     -2.043162    -0.289040     0.855521
H     -2.505451     0.524341    -0.641260
H     -0.282353     0.120129    -1.623922
H     -0.983992    -1.394166    -1.091745
H      0.394175    -1.234837     1.032495
H      1.299844    -1.466284    -0.447665
H      2.443895     0.208733     0.951490
H      0.999871     1.208188     1.029331
H      1.840814     0.997948    -0.509577
14
Iteration 5, Energy=-157.3081748220, |grad|=0.003141
C     -1.664181     0.306078     0.019981
C     -0.568839    -0.447643    -0.731526
C      0.686244    -0.743267     0.095979
C      1.537107     0.486902     0.410187
H     -1.311412     1.258034     0.423166
H     -2.041651    -0.288368     0.856775
H     -2.506090     0.522489    -0.641235
H     -0.282978     0.119664    -1.624481
H     -0.984459    -1.393921    -1.090915
H      0.394608    -1.234854     1.031429
H      1.299838    -1.466625    -0.448782
H      2.443717     0.208449     0.952590
H      0.999087     1.207513     1.029302
H      1.841931     0.998161    -0.508289
14
Iteration 6, Energy=-157.3081889462, |grad|=0.003815
C     -1.664024     0.307904     0.020427
C     -0.568775    -0.446128    -0.730820
C      0.686899    -0.743050     0.093351
C      1.537069     0.486231     0.412036
H     -1.313611     1.262662     0.417448
H     -2.037007    -0.285734     0.860880
H     -2.508811     0.516687    -0.640522
H     -0.284704     0.117819    -1.626467
H     -0.985535    -1.392944    -1.088831
H      0.396258    -1.235354     1.028043
H      1.300205    -1.467244    -0.452192
H      2.443151     0.207077     0.955647
H      0.996415     1.206201     1.029138
H      1.845392     0.998486    -0.503959
14
Iteration 7, Energy=-157.3081987430, |grad|=0.004860
C     -1.664010     0.309066     0.020586
C     -0.569053    -0.445449    -0.731323
C      0.687567    -0.743204     0.092260
C      1.537199     0.485902     0.413227
H     -1.315230     1.266313     0.412444
H     -2.033466    -0.282892     0.864267
H     -2.511353     0.512211    -0.639035
H     -0.285923     0.116413    -1.627993
H     -0.986105    -1.392272    -1.087602
H      0.397660    -1.236488     1.025475
H      1.300733    -1.466764    -0.454859
H      2.442513     0.205520     0.958141
H      0.994366     1.205659     1.029234
H      1.848024     0.998599    -0.500643
14
Iteration 8, Energy=-157.3082193260, |grad|=0.004820
C     -1.664096     0.310949     0.020738
C     -0.569365    -0.444241    -0.731821
C      0.688826    -0.742804     0.088695
C      1.537518     0.484646     0.417089
H     -1.318898     1.275147     0.400118
H     -2.024849    -0.275154     0.872228
H     -2.517856     0.501760    -0.634735
H     -0.288523     0.113526    -1.631976
H     -0.987578    -1.391458    -1.085349
H      0.400756    -1.240388     1.020421
H      1.302302    -1.464733    -0.461138
H      2.440373     0.201710     0.964122
H      0.989945     1.204513     1.029559
H      1.854366     0.999139    -0.493772
14
Iteration 9, Energy=-157.3082496644, |grad|=0.007054
C     -1.664305     0.313542     0.020691
C     -0.570631    -0.444118    -0.733750
C      0.690117    -0.742969     0.085590
C      1.536865     0.483720     0.420708
H     -1.323680     1.286201     0.381210
H     -2.011823    -0.261929     0.883554
H     -2.527644     0.487671    -0.626997
H     -0.291653     0.110486    -1.636593
H     -0.989164    -1.391960    -1.083629
H      0.404776    -1.247941     1.013442
H      1.305241    -1.458653    -0.469824
H      2.436189     0.196025     0.973966
H      0.986056     1.203035     1.030980
H      1.862577     0.999503    -0.485168
14
Iteration 10, Energy=-157.3082766691, |grad|=0.007811
C     -1.663702     0.316678     0.017880
C     -0.572724    -0.444325    -0.736189
C      0.690403    -0.742871     0.081194
C      1.537742     0.481542     0.426807
H     -1.329344     1.300337     0.356019
H     -1.994402    -0.244308     0.899892
H     -2.540179     0.469584    -0.616204
H     -0.295680     0.107244    -1.641262
H     -0.991285    -1.393933    -1.082079
H      0.409482    -1.258978     1.004865
H      1.309632    -1.449409    -0.481410
H      2.428056     0.189487     0.986699
H      0.982181     1.201364     1.033820
H      1.872741     1.000200    -0.475851
14
Iteration 1, Energy=-157.3082761588, |grad|=0.009179
C     -1.663678     0.317048     0.017553
C     -0.573088    -0.445528    -0.736219
C      0.690097    -0.742889     0.080230
C      1.537739     0.480968     0.427546
H     -1.330755     1.302956     0.352733
H     -1.990666    -0.242790     0.902111
H     -2.540971     0.465444    -0.615705
H     -0.296905     0.107424    -1.641863
H     -0.991142    -1.394615    -1.083414
H      0.409649    -1.259538     1.003454
H      1.309580    -1.449013    -0.484405
H      2.427154     0.189089     0.989926
H      0.982754     1.202872     1.034025
H      1.875401     0.999857    -0.475097
14
Iteration 2, Energy=-157.3082777415, |grad|=0.007310
C     -1.663758     0.316505     0.018055
C     -0.572621    -0.444499    -0.736026
C      0.690328    -0.742884     0.081343
C      1.537666     0.481589     0.426443
H     -1.329146     1.299643     0.357592
H     -1.995195    -0.245556     0.898922
H     -2.539256     0.470357    -0.617037
H     -0.295594     0.107556    -1.640969
H     -0.991150    -1.393910    -1.082377
H      0.409120    -1.258131     1.005316
H      1.309269    -1.450123    -0.480979
H      2.428599     0.189970     0.986191
H      0.982578     1.201748     1.033615
H      1.872362     1.000059    -0.476478
14
Iteration -1, Energy=-157.3082777415, |grad|=0.007310
C     -1.663758     0.316505     0.018055
C     -0.572621    -0.444499    -0.736026
C      0.690328    -0.742884     0.081343
C      1.537666     0.481589     0.426443
H     -1.329146     1.299643     0.357592
H     -1.995195    -0.245556     0.898922
H     -2.539256     0.470357    -0.617037
H     -0.295594     0.107556    -1.640969
H     -0.991150    -1.393910    -1.082377
H      0.409120    -1.258131     1.005316
H      1.309269    -1.450123    -0.480979
H      2.428599     0.189970     0.986191
H      0.982578     1.201748     1.033615
H      1.872362     1.000059    -0.476478
14
Iteration 1, Energy=-157.3082885353, |grad|=0.003544
C     -1.663947     0.315767     0.019045
C     -0.572424    -0.444739    -0.735573
C      0.690569    -0.742608     0.080506
C      1.536488     0.482051     0.426257
H     -1.328922     1.299411     0.357322
H     -1.994478    -0.244851     0.898230
H     -2.539160     0.470488    -0.617325
H     -0.295494     0.107974    -1.640780
H     -0.991290    -1.394251    -1.082451
H      0.408695    -1.258487     1.005700
H      1.309057    -1.449796    -0.480931
H      2.428711     0.190057     0.986721
H      0.983295     1.201370     1.033715
H      1.872103     0.999935    -0.476827
14
Iteration 2, Energy=-157.3082924847, |grad|=0.003118
C     -1.663869     0.315686     0.019011
C     -0.572462    -0.444959    -0.735485
C      0.690389    -0.742578     0.080582
C      1.536387     0.482052     0.426059
H     -1.328722     1.299090     0.357084
H     -1.994043    -0.244611     0.898275
H     -2.538884     0.470527    -0.617423
H     -0.295498     0.108313    -1.640419
H     -0.991344    -1.394487    -1.082482
H      0.408446    -1.258597     1.005604
H      1.309033    -1.449585    -0.481054
H      2.428329     0.190296     0.986930
H      0.983657     1.201327     1.034051
H      1.871783     0.999850    -0.477122
14
Iteration 3, Energy=-157.3083028793, |grad|=0.005571
C     -1.662341     0.314160     0.017490
C     -0.573360    -0.446138    -0.735752
C      0.689495    -0.743276     0.080818
C      1.534661     0.482515     0.425646
H     -1.325821     1.297386     0.354933
H     -1.990441    -0.243035     0.900134
H     -2.536685     0.470784    -0.618592
H     -0.295673     0.111052    -1.636445
H     -0.991587    -1.396518    -1.082847
H      0.406042    -1.259830     1.004974
H      1.308445    -1.447255    -0.481934
H      2.425075     0.192285     0.988488
H      0.986900     1.201136     1.036910
H      1.868493     0.999057    -0.480211
14
Iteration 4, Energy=-157.3083069336, |grad|=0.004948
C     -1.662361     0.314607     0.018643
C     -0.572712    -0.447467    -0.735633
C      0.688231    -0.742547     0.081415
C      1.534678     0.482227     0.425044
H     -1.324456     1.297179     0.353965
H     -1.989749    -0.242779     0.900562
H     -2.536589     0.470585    -0.618966
H     -0.295533     0.111737    -1.636521
H     -0.991336    -1.396461    -1.083281
H      0.405625    -1.260372     1.004802
H      1.308877    -1.447386    -0.482513
H      2.424991     0.192396     0.988315
H      0.986391     1.202091     1.037736
H      1.867147     0.998513    -0.479958
14
Iteration 5, Energy=-157.3083105474, |grad|=0.001749
C     -1.662575     0.314736     0.018429
C     -0.572842    -0.446704    -0.735572
C      0.688842    -0.742904     0.081217
C      1.534744     0.482326     0.425565
H     -1.324917     1.297524     0.354357
H     -1.990406    -0.243068     0.900378
H     -2.536821     0.470517    -0.618593
H     -0.295521     0.111155    -1.637092
H     -0.991328    -1.396276    -1.083280
H      0.406027    -1.260140     1.004906
H      1.308794    -1.447577    -0.482165
H      2.425497     0.192047     0.987968
H      0.985968     1.201958     1.037076
H      1.867741     0.998730    -0.479584
14
Iteration 6, Energy=-157.3083119470, |grad|=0.001256
C     -1.662519     0.314770     0.018468
C     -0.572914    -0.446573    -0.735559
C      0.688913    -0.743051     0.081282
C      1.534511     0.482367     0.425857
H     -1.324451     1.297575     0.354068
H     -1.990307    -0.242979     0.900574
H     -2.536734     0.470401    -0.618465
H     -0.295476     0.111151    -1.637147
H     -0.991230    -1.396291    -1.083514
H      0.405946    -1.260325     1.004879
H      1.308802    -1.447504    -0.482122
H      2.425562     0.192001     0.987723
H      0.985755     1.202132     1.037072
H      1.867344     0.998649    -0.479507
14
Iteration 7, Energy=-157.3083161892, |grad|=0.001870
C     -1.661935     0.314771     0.018686
C     -0.573057    -0.446539    -0.735600
C      0.688696    -0.743529     0.081670
C      1.533211     0.482536     0.426943
H     -1.321672     1.297644     0.352260
H     -1.989262    -0.242184     0.901759
H     -2.536160     0.469876    -0.617939
H     -0.295252     0.111485    -1.636944
H     -0.990706    -1.396402    -1.084753
H      0.405222    -1.261564     1.004711
H      1.308935    -1.446957    -0.482081
H      2.425548     0.192051     0.986691
H      0.984901     1.203026     1.037534
H      1.864734     0.998107    -0.479327
14
Iteration 8, Energy=-157.3083189010, |grad|=0.001861
C     -1.661019     0.314706     0.018751
C     -0.572912    -0.446913    -0.735832
C      0.688258    -0.743900     0.082038
C      1.532047     0.482522     0.427558
H     -1.319463     1.297667     0.350658
H     -1.988073    -0.241043     0.902700
H     -2.535863     0.469574    -0.617219
H     -0.295008     0.111698    -1.636621
H     -0.990289    -1.396342    -1.085835
H      0.404580    -1.262811     1.004533
H      1.309167    -1.446426    -0.481872
H      2.425401     0.192309     0.985891
H      0.984086     1.203378     1.038087
H      1.862291     0.997904    -0.479226
14
Iteration 9, Energy=-157.3083208399, |grad|=0.002989
C     -1.660556     0.314903     0.018478
C     -0.572543    -0.447379    -0.735785
C      0.687805    -0.744297     0.082338
C      1.530945     0.482524     0.427795
H     -1.317186     1.297984     0.348910
H     -1.986260    -0.239478     0.903826
H     -2.535470     0.469381    -0.615989
H     -0.294332     0.111922    -1.636628
H     -0.990148    -1.396700    -1.087190
H      0.403835    -1.264340     1.004412
H      1.309836    -1.446211    -0.481580
H      2.425012     0.192862     0.985104
H      0.982894     1.203106     1.039017
H      1.859371     0.998046    -0.479098
14
Iteration 10, Energy=-157.3083240774, |grad|=0.001524
C     -1.659131     0.315122     0.018592
C     -0.572327    -0.448151    -0.736415
C      0.687364    -0.744901     0.082821
C      1.529562     0.482403     0.428159
H     -1.315003     1.298190     0.346950
H     -1.984219    -0.237511     0.904919
H     -2.535561     0.469304    -0.614782
H     -0.293625     0.111923    -1.636361
H     -0.989876    -1.396701    -1.088515
H      0.403125    -1.265971     1.004160
H      1.310518    -1.445899    -0.481104
H      2.424595     0.193556     0.984269
H      0.981571     1.202502     1.040001
H      1.856211     0.998458    -0.479083
14
Iteration 1, Energy=-157.3083115075, |grad|=0.005935
C     -1.658712     0.314883     0.018673
C     -0.572674    -0.448305    -0.735404
C      0.686753    -0.745469     0.083507
C      1.527866     0.482770     0.428897
H     -1.310598     1.298238     0.343333
H     -1.982161    -0.235245     0.907396
H     -2.534358     0.468371    -0.613612
H     -0.293244     0.113025    -1.635462
H     -0.989151    -1.397101    -1.090484
H      0.401771    -1.267947     1.003689
H      1.310490    -1.445146    -0.481385
H      2.424075     0.193765     0.983184
H      0.980683     1.204587     1.040485
H      1.851639     0.997420    -0.479032
14
Iteration 2, Energy=-157.3083172705, |grad|=0.007032
C     -1.656242     0.315718     0.018623
C     -0.571071    -0.449757    -0.738769
C      0.686475    -0.746020     0.084344
C      1.527022     0.481992     0.428878
H     -1.311247     1.297963     0.343246
H     -1.980190    -0.233724     0.906892
H     -2.535356     0.470079    -0.612787
H     -0.291639     0.111321    -1.636374
H     -0.989374    -1.396498    -1.091099
H      0.401842    -1.269407     1.004094
H      1.312166    -1.445847    -0.478989
H      2.424132     0.195502     0.981044
H      0.979019     1.199788     1.042100
H      1.850021     0.999895    -0.479250
14
Iteration -1, Energy=-157.3083240774, |grad|=0.001524
C     -1.659131     0.315122     0.018592
C     -0.572327    -0.448151    -0.736415
C      0.687364    -0.744901     0.082821
C      1.529562     0.482403     0.428159
H     -1.315003     1.298190     0.346950
H     -1.984219    -0.237511     0.904919
H     -2.535561     0.469304    -0.614782
H     -0.293625     0.111923    -1.636361
H     -0.989876    -1.396701    -1.088515
H      0.403125    -1.265971     1.004160
H      1.310518    -1.445899    -0.481104
H      2.424595     0.193556     0.984269
H      0.981571     1.202502     1.040001
H      1.856211     0.998458    -0.479083
14
Iteration 1, Energy=-157.3083251597, |grad|=0.002000
C     -1.658710     0.315176     0.018679
C     -0.572453    -0.448253    -0.736847
C      0.687528    -0.745257     0.082563
C      1.529407     0.482345     0.428181
H     -1.315353     1.298473     0.346970
H     -1.983908    -0.237380     0.905026
H     -2.535979     0.469508    -0.614905
H     -0.293422     0.111630    -1.636272
H     -0.990002    -1.396593    -1.088286
H      0.403276    -1.265784     1.004083
H      1.310589    -1.446112    -0.480995
H      2.424575     0.193771     0.984431
H      0.981423     1.201900     1.040229
H      1.856231     0.998900    -0.479247
14
Iteration 2, Energy=-157.3083263266, |grad|=0.001514
C     -1.658745     0.315278     0.018519
C     -0.572368    -0.448316    -0.736874
C      0.687535    -0.745357     0.082372
C      1.529433     0.482266     0.428001
H     -1.315593     1.298726     0.346982
H     -1.983616    -0.237272     0.905112
H     -2.536070     0.469624    -0.614807
H     -0.293228     0.111454    -1.636362
H     -0.990189    -1.396625    -1.088167
H      0.403385    -1.265669     1.004033
H      1.310731    -1.446388    -0.480978
H      2.424526     0.193955     0.984537
H      0.981220     1.201443     1.040468
H      1.856181     0.999205    -0.479226
14
Iteration 3, Energy=-157.3083293767, |grad|=0.001017
C     -1.658833     0.316048     0.018191
C     -0.572162    -0.448444    -0.737007
C      0.688048    -0.745805     0.081603
C      1.529449     0.482055     0.427318
H     -1.316877     1.299831     0.346803
H     -1.981951    -0.236522     0.905282
H     -2.536477     0.470105    -0.614255
H     -0.292177     0.110465    -1.637075
H     -0.991259    -1.396886    -1.087597
H      0.403945    -1.265125     1.003770
H      1.311378    -1.447910    -0.480959
H      2.424233     0.194860     0.984892
H      0.980091     1.198819     1.041558
H      1.855794     1.000834    -0.478913
14
Iteration 4, Energy=-157.3083304289, |grad|=0.001517
C     -1.658448     0.316276     0.017861
C     -0.572115    -0.448376    -0.737211
C      0.688367    -0.745991     0.081389
C      1.529569     0.481898     0.427487
H     -1.317068     1.300601     0.346455
H     -1.981299    -0.236141     0.905484
H     -2.536488     0.469972    -0.613859
H     -0.291932     0.109801    -1.637592
H     -0.991686    -1.396689    -1.087251
H      0.404243    -1.265076     1.003734
H      1.311385    -1.448479    -0.481063
H      2.424226     0.195083     0.984615
H      0.979130     1.197785     1.041961
H      1.855319     1.001659    -0.478401
14
Iteration 5, Energy=-157.3083319636, |grad|=0.001160
C     -1.657852     0.316819     0.017826
C     -0.571769    -0.448318    -0.737428
C      0.688695    -0.746256     0.081119
C      1.529300     0.481831     0.427660
H     -1.317205     1.301568     0.345715
H     -1.980272    -0.235454     0.905626
H     -2.536491     0.469633    -0.613342
H     -0.291667     0.108825    -1.638480
H     -0.992301    -1.396410    -1.086755
H      0.404677    -1.265092     1.003661
H      1.311322    -1.449231    -0.481285
H      2.424565     0.195246     0.984269
H      0.977689     1.196296     1.042526
H      1.854512     1.002868    -0.477503
14
Iteration 6, Energy=-157.3083329200, |grad|=0.002669
C     -1.656908     0.317892     0.017978
C     -0.571565    -0.448240    -0.737294
C      0.689085    -0.747057     0.080557
C      1.528705     0.481204     0.428534
H     -1.316595     1.303014     0.343890
H     -1.978188    -0.233933     0.905952
H     -2.536164     0.468623    -0.612746
H     -0.291449     0.107402    -1.640045
H     -0.993102    -1.396252    -1.085917
H      0.405184    -1.265490     1.003297
H      1.311078    -1.449746    -0.481750
H      2.424983     0.195459     0.983500
H      0.975374     1.194324     1.043943
H      1.852766     1.005122    -0.476289
14
Iteration 7, Energy=-157.3083345428, |grad|=0.001264
C     -1.656548     0.318032     0.017952
C     -0.571481    -0.448213    -0.737572
C      0.688965    -0.746990     0.080749
C      1.528352     0.481473     0.428529
H     -1.316089     1.303376     0.343295
H     -1.977766    -0.233526     0.906202
H     -2.536001     0.468228    -0.612698
H     -0.291639     0.107033    -1.640158
H     -0.993173    -1.396185    -1.085692
H      0.405203    -1.265836     1.003183
H      1.311056    -1.449756    -0.482080
H      2.425237     0.195324     0.983322
H      0.974990     1.193977     1.044258
H      1.852099     1.005386    -0.475681
14
Iteration 8, Energy=-157.3083358665, |grad|=0.001337
C     -1.656238     0.318208     0.017894
C     -0.571493    -0.448355    -0.737667
C      0.688776    -0.746952     0.080727
C      1.527958     0.481619     0.428694
H     -1.315342     1.303692     0.342498
H     -1.977126    -0.232928     0.906600
H     -2.535809     0.467802    -0.612798
H     -0.291860     0.106779    -1.640181
H     -0.993203    -1.396335    -1.085448
H      0.405084    -1.266368     1.002989
H      1.311098    -1.449507    -0.482446
H      2.425273     0.195265     0.983158
H      0.974822     1.193677     1.044860
H      1.851263     1.005723    -0.475268
14
Iteration 9, Energy=-157.3083398214, |grad|=0.002622
C     -1.654831     0.319200     0.017540
C     -0.571511    -0.448977    -0.737969
C      0.688401    -0.747321     0.080390
C      1.526423     0.481754     0.429509
H     -1.312582     1.305494     0.338792
H     -1.973665    -0.229880     0.908361
H     -2.535130     0.466150    -0.612915
H     -0.292410     0.105294    -1.640756
H     -0.993796    -1.397142    -1.084193
H      0.404845    -1.268403     1.001850
H      1.311389    -1.448783    -0.483938
H      2.425159     0.195387     0.982374
H      0.973459     1.191539     1.048077
H      1.847450     1.008012    -0.473513
14
Iteration 10, Energy=-157.3083451298, |grad|=0.003364
C     -1.652384     0.320984     0.016674
C     -0.571448    -0.450325    -0.738402
C      0.688386    -0.748144     0.079410
C      1.523902     0.481747     0.431103
H     -1.308733     1.308705     0.332317
H     -1.967558    -0.224324     0.911403
H     -2.534232     0.463870    -0.612528
H     -0.292896     0.102504    -1.642160
H     -0.995201    -1.398576    -1.082006
H      0.404705    -1.271650     0.999821
H      1.312105    -1.447909    -0.486303
H      2.424758     0.195860     0.981005
H      0.970811     1.187221     1.053918
H      1.840988     1.012361    -0.470644
14
Iteration 1, Energy=-157.3083440430, |grad|=0.005104
C     -1.651475     0.321909     0.016338
C     -0.571382    -0.450921    -0.738783
C      0.688280    -0.748458     0.078962
C      1.522461     0.481765     0.432014
H     -1.306265     1.310259     0.328537
H     -1.964860    -0.221602     0.913126
H     -2.533619     0.462246    -0.612500
H     -0.293189     0.100906    -1.642961
H     -0.996020    -1.399122    -1.080746
H      0.404713    -1.273558     0.998718
H      1.312367    -1.447688    -0.487679
H      2.424833     0.195971     0.980056
H      0.969838     1.184764     1.056993
H      1.837388     1.014687    -0.469035
14
Iteration 2, Energy=-157.3083436242, |grad|=0.004176
C     -1.653022     0.320769     0.016482
C     -0.571604    -0.450439    -0.738301
C      0.688245    -0.747917     0.079289
C      1.523914     0.481896     0.431436
H     -1.307889     1.308243     0.331777
H     -1.968410    -0.224581     0.911787
H     -2.533921     0.463325    -0.612853
H     -0.293450     0.102646    -1.641939
H     -0.995210    -1.399093    -1.081370
H      0.404537    -1.272313     0.999467
H      1.312103    -1.447172    -0.487022
H      2.424614     0.195664     0.980952
H      0.971757     1.187413     1.054173
H      1.841038     1.012112    -0.470884
14
Iteration -1, Energy=-157.3083451298, |grad|=0.003364
C     -1.652384     0.320984     0.016674
C     -0.571448    -0.450325    -0.738402
C      0.688386    -0.748144     0.079410
C      1.523902     0.481747     0.431103
H     -1.308733     1.308705     0.332317
H     -1.967558    -0.224324     0.911403
H     -2.534232     0.463870    -0.612528
H     -0.292896     0.102504    -1.642160
H     -0.995201    -1.398576    -1.082006
H      0.404705    -1.271650     0.999821
H      1.312105    -1.447909    -0.486303
H      2.424758     0.195860     0.981005
H      0.970811     1.187221     1.053918
H      1.840988     1.012361    -0.470644
14
Iteration 1, Energy=-157.3083469648, |grad|=0.001730
C     -1.652428     0.320891     0.016643
C     -0.571483    -0.450333    -0.738244
C      0.688526    -0.748318     0.079335
C      1.524129     0.481472     0.431352
H     -1.308838     1.308663     0.332222
H     -1.967573    -0.224188     0.911382
H     -2.534268     0.464006    -0.612394
H     -0.292833     0.102528    -1.642266
H     -0.995246    -1.398699    -1.082070
H      0.404746    -1.271618     0.999725
H      1.312135    -1.447777    -0.486221
H      2.424548     0.195928     0.980887
H      0.970780     1.187335     1.054075
H      1.841007     1.012435    -0.470815
14
Iteration 2, Energy=-157.3083481481, |grad|=0.001310
C     -1.652498     0.320777     0.016611
C     -0.571485    -0.450425    -0.738152
C      0.688723    -0.748519     0.079324
C      1.524240     0.481269     0.431526
H     -1.309092     1.308550     0.331983
H     -1.967639    -0.223890     0.911396
H     -2.534392     0.464324    -0.612105
H     -0.292725     0.102510    -1.642379
H     -0.995313    -1.398911    -1.082183
H      0.404848    -1.271612     0.999526
H      1.312325    -1.447608    -0.486148
H      2.424389     0.195963     0.980818
H      0.970824     1.187441     1.054364
H      1.840996     1.012456    -0.470971
14
Iteration 3, Energy=-157.3083492235, |grad|=0.001490
C     -1.652574     0.320640     0.016518
C     -0.571467    -0.450640    -0.738179
C      0.688894    -0.748620     0.079266
C      1.524236     0.481224     0.431644
H     -1.309447     1.308447     0.331618
H     -1.967778    -0.223466     0.911510
H     -2.534639     0.464803    -0.611687
H     -0.292585     0.102408    -1.642453
H     -0.995371    -1.399172    -1.082330
H      0.405000    -1.271710     0.999332
H      1.312725    -1.447438    -0.486112
H      2.424303     0.195960     0.980801
H      0.970973     1.187485     1.054748
H      1.840931     1.012403    -0.471065
14
Iteration 4, Energy=-157.3083509101, |grad|=0.001325
C     -1.652738     0.320420     0.016307
C     -0.571553    -0.451098    -0.738482
C      0.689076    -0.748731     0.079143
C      1.524177     0.481349     0.431811
H     -1.310021     1.308472     0.330777
H     -1.968136    -0.222561     0.911924
H     -2.535381     0.465778    -0.610895
H     -0.292333     0.101986    -1.642500
H     -0.995377    -1.399727    -1.082651
H      0.405400    -1.272120     0.998993
H      1.313790    -1.447041    -0.486115
H      2.424235     0.195887     0.980783
H      0.971377     1.187459     1.055572
H      1.840686     1.012252    -0.471057
14
Iteration 5, Energy=-157.3083513845, |grad|=0.001525
C     -1.653026     0.320626     0.016207
C     -0.571608    -0.451437    -0.738352
C      0.689160    -0.748656     0.079006
C      1.523886     0.481322     0.431922
H     -1.310061     1.308563     0.330311
H     -1.968251    -0.222139     0.912129
H     -2.535732     0.466029    -0.610594
H     -0.292257     0.101762    -1.642684
H     -0.995316    -1.399996    -1.082821
H      0.405620    -1.272481     0.998897
H      1.314275    -1.446731    -0.486146
H      2.424377     0.195773     0.980787
H      0.971594     1.187384     1.055935
H      1.840539     1.012304    -0.470986
14
Iteration 6, Energy=-157.3083520685, |grad|=0.000828
C     -1.653155     0.320647     0.016152
C     -0.571736    -0.451605    -0.738571
C      0.689122    -0.748684     0.079031
C      1.523821     0.481450     0.431972
H     -1.310091     1.308770     0.329795
H     -1.968412    -0.221628     0.912387
H     -2.536243     0.466340    -0.610335
H     -0.292229     0.101369    -1.642680
H     -0.995234    -1.400298    -1.082972
H      0.405913    -1.272876     0.998733
H      1.314879    -1.446406    -0.486233
H      2.424440     0.195657     0.980743
H      0.971814     1.187291     1.056373
H      1.840313     1.012295    -0.470785
14
Iteration 7, Energy=-157.3083525878, |grad|=0.000758
C     -1.653253     0.320803     0.016050
C     -0.571938    -0.451734    -0.738668
C      0.689046    -0.748671     0.079035
C      1.523770     0.481526     0.432112
H     -1.309862     1.309080     0.329301
H     -1.968485    -0.221174     0.912626
H     -2.536669     0.466344    -0.610259
H     -0.292319     0.100947    -1.642702
H     -0.995111    -1.400499    -1.083021
H      0.406200    -1.273370     0.998644
H      1.315284    -1.445998    -0.486379
H      2.424530     0.195499     0.980627
H      0.971961     1.187156     1.056739
H      1.840048     1.012415    -0.470495
14
Iteration 8, Energy=-157.3083532314, |grad|=0.001062
C     -1.653413     0.321087     0.015966
C     -0.572129    -0.451853    -0.738633
C      0.688922    -0.748659     0.079131
C      1.523649     0.481510     0.432360
H     -1.309384     1.309522     0.328493
H     -1.968452    -0.220408     0.912851
H     -2.537135     0.466108    -0.610258
H     -0.292562     0.100337    -1.642805
H     -0.994999    -1.400801    -1.082972
H      0.406646    -1.274129     0.998456
H      1.315667    -1.445321    -0.486706
H      2.424699     0.195216     0.980407
H      0.972075     1.186964     1.057340
H      1.839617     1.012748    -0.470020
14
Iteration 9, Energy=-157.3083541332, |grad|=0.001452
C     -1.653358     0.321590     0.015552
C     -0.572586    -0.452200    -0.738497
C      0.688918    -0.748708     0.079125
C      1.523488     0.481564     0.433008
H     -1.308651     1.310195     0.326911
H     -1.968296    -0.218967     0.913355
H     -2.537696     0.465575    -0.610287
H     -0.293042     0.099350    -1.643014
H     -0.994907    -1.401221    -1.082583
H      0.407396    -1.275474     0.998118
H      1.316050    -1.444088    -0.487413
H      2.424903     0.194706     0.979947
H      0.972214     1.186562     1.058550
H      1.838769     1.013439    -0.469161
14
Iteration 10, Energy=-157.3083554030, |grad|=0.001374
C     -1.653427     0.321990     0.015201
C     -0.572722    -0.452544    -0.738209
C      0.688795    -0.748595     0.079160
C      1.523200     0.481430     0.433809
H     -1.307779     1.311058     0.324766
H     -1.967854    -0.216928     0.913826
H     -2.538037     0.464801    -0.610378
H     -0.293698     0.098177    -1.643321
H     -0.995065    -1.401890    -1.081851
H      0.408333    -1.277085     0.997571
H      1.316395    -1.442704    -0.488579
H      2.425162     0.194080     0.979389
H      0.972253     1.186054     1.060320
H      1.837648     1.014479    -0.468095
14
Iteration 1, Energy=-157.3083511966, |grad|=0.004416
C     -1.653775     0.322780     0.014388
C     -0.572991    -0.453461    -0.738370
C      0.689349    -0.748609     0.078564
C      1.522708     0.481881     0.434997
H     -1.307059     1.312497     0.320696
H     -1.967620    -0.213161     0.915635
H     -2.538340     0.466899    -0.610278
H     -0.293214     0.095824    -1.643672
H     -0.994892    -1.403557    -1.081850
H      0.407237    -1.280103     0.996233
H      1.317943    -1.440884    -0.489948
H      2.424210     0.193834     0.978601
H      0.973293     1.185332     1.064122
H      1.835657     1.015465    -0.466362
14
Iteration 2, Energy=-157.3083472299, |grad|=0.004416
C     -1.653990     0.322069     0.014853
C     -0.573515    -0.453223    -0.737888
C      0.688220    -0.748758     0.079638
C      1.523070     0.481023     0.434463
H     -1.307530     1.311414     0.323068
H     -1.968378    -0.214848     0.913966
H     -2.540449     0.462754    -0.608728
H     -0.295127     0.097429    -1.643651
H     -0.995026    -1.402451    -1.081538
H      0.412086    -1.278025     0.997433
H      1.317895    -1.440459    -0.488978
H      2.426612     0.192824     0.979107
H      0.972222     1.185762     1.061569
H      1.837109     1.015097    -0.468007
14
Iteration -1, Energy=-157.3083554030, |grad|=0.001374
C     -1.653427     0.321990     0.015201
C     -0.572722    -0.452544    -0.738209
C      0.688795    -0.748595     0.079160
C      1.523200     0.481430     0.433809
H     -1.307779     1.311058     0.324766
H     -1.967854    -0.216928     0.913826
H     -2.538037     0.464801    -0.610378
H     -0.293698     0.098177    -1.643321
H     -0.995065    -1.401890    -1.081851
H      0.408333    -1.277085     0.997571
H      1.316395    -1.442704    -0.488579
H      2.425162     0.194080     0.979389
H      0.972253     1.186054     1.060320
H      1.837648     1.014479    -0.468095
14
Iteration 1, Energy=-157.3083561985, |grad|=0.001190
C     -1.653270     0.322072     0.015220
C     -0.572663    -0.452683    -0.738020
C      0.689078    -0.748776     0.079033
C      1.523032     0.481393     0.433850
H     -1.308086     1.310853     0.324558
H     -1.967688    -0.216833     0.913874
H     -2.537734     0.464843    -0.610386
H     -0.293616     0.098366    -1.643480
H     -0.995280    -1.401966    -1.081592
H      0.408282    -1.276880     0.997385
H      1.316191    -1.442780    -0.488689
H      2.425138     0.194125     0.979457
H      0.972208     1.185989     1.060573
H      1.837611     1.014599    -0.468173
14
Iteration 2, Energy=-157.3083568793, |grad|=0.000944
C     -1.653120     0.321907     0.015246
C     -0.572496    -0.452696    -0.738064
C      0.689175    -0.748816     0.078942
C      1.523003     0.481404     0.433833
H     -1.308371     1.310838     0.324359
H     -1.967473    -0.216689     0.913940
H     -2.537378     0.464880    -0.610438
H     -0.293576     0.098454    -1.643485
H     -0.995552    -1.402053    -1.081237
H      0.408232    -1.276683     0.997208
H      1.316067    -1.443004    -0.488931
H      2.425056     0.194206     0.979513
H      0.972125     1.185861     1.060885
H      1.837512     1.014714    -0.468162
14
Iteration 3, Energy=-157.3083575570, |grad|=0.001292
C     -1.652514     0.321704     0.015085
C     -0.572350    -0.452877    -0.738255
C      0.689404    -0.748760     0.078325
C      1.522927     0.481620     0.433930
H     -1.308975     1.311096     0.323876
H     -1.966898    -0.216481     0.914383
H     -2.536551     0.464806    -0.610754
H     -0.293511     0.098524    -1.643448
H     -0.996128    -1.402081    -1.080178
H      0.408048    -1.276353     0.996979
H      1.315788    -1.443639    -0.489583
H      2.424868     0.194444     0.979639
H      0.971940     1.185212     1.061592
H      1.837152     1.015105    -0.467981
14
Iteration 4, Energy=-157.3083581063, |grad|=0.000814
C     -1.652540     0.321788     0.015272
C     -0.572246    -0.452698    -0.738258
C      0.689379    -0.748911     0.078392
C      1.522934     0.481491     0.433810
H     -1.308947     1.311402     0.323712
H     -1.966579    -0.216356     0.914394
H     -2.536372     0.464590    -0.610970
H     -0.293570     0.098359    -1.643521
H     -0.996290    -1.402191    -1.079891
H      0.408068    -1.276244     0.996738
H      1.315753    -1.443768    -0.489781
H      2.424877     0.194520     0.979658
H      0.971748     1.184917     1.061855
H      1.836987     1.015422    -0.467800
14
Iteration 5, Energy=-157.3083584583, |grad|=0.000820
C     -1.652557     0.321969     0.015322
C     -0.572261    -0.452633    -0.738198
C      0.689372    -0.748945     0.078334
C      1.522929     0.481384     0.433815
H     -1.308831     1.311704     0.323618
H     -1.966359    -0.216288     0.914430
H     -2.536324     0.464357    -0.611126
H     -0.293640     0.098173    -1.643618
H     -0.996332    -1.402198    -1.079718
H      0.408082    -1.276282     0.996665
H      1.315752    -1.443812    -0.489875
H      2.424912     0.194564     0.979631
H      0.971605     1.184622     1.061973
H      1.836853     1.015707    -0.467644
14
Iteration 6, Energy=-157.3083593139, |grad|=0.001155
C     -1.652199     0.322745     0.015345
C     -0.572330    -0.452467    -0.738078
C      0.689517    -0.749168     0.078084
C      1.522825     0.481246     0.433851
H     -1.308584     1.312791     0.323009
H     -1.965386    -0.215741     0.914645
H     -2.536080     0.463420    -0.611631
H     -0.293980     0.097339    -1.644056
H     -0.996617    -1.402150    -1.078799
H      0.408169    -1.276502     0.996305
H      1.315655    -1.443997    -0.490351
H      2.425130     0.194677     0.979498
H      0.970925     1.183203     1.062633
H      1.836156     1.016927    -0.466843
14
Iteration 7, Energy=-157.3083595186, |grad|=0.002163
C     -1.651922     0.323327     0.015079
C     -0.572073    -0.452530    -0.737754
C      0.689723    -0.749133     0.077499
C      1.522794     0.480718     0.434357
H     -1.308412     1.314097     0.322029
H     -1.964124    -0.214611     0.914847
H     -2.535622     0.462433    -0.611803
H     -0.294354     0.096370    -1.644831
H     -0.997167    -1.402146    -1.077623
H      0.408347    -1.276963     0.995959
H      1.315579    -1.444217    -0.491000
H      2.425287     0.194828     0.979132
H      0.969908     1.181576     1.063774
H      1.835241     1.018575    -0.466055
14
Iteration 8, Energy=-157.3083602773, |grad|=0.000902
C     -1.651744     0.323306     0.015058
C     -0.572144    -0.452559    -0.737912
C      0.689776    -0.749213     0.077616
C      1.522700     0.480975     0.434271
H     -1.308515     1.313865     0.322000
H     -1.964259    -0.214601     0.914882
H     -2.535731     0.462581    -0.611714
H     -0.294324     0.096425    -1.644760
H     -0.997135    -1.402138    -1.077698
H      0.408374    -1.276962     0.995953
H      1.315589    -1.444165    -0.490957
H      2.425349     0.194753     0.979171
H      0.970006     1.181677     1.063736
H      1.835258     1.018380    -0.466034
14
Iteration 9, Energy=-157.3083608150, |grad|=0.000726
C     -1.651444     0.323426     0.014900
C     -0.572115    -0.452644    -0.738023
C      0.689905    -0.749304     0.077594
C      1.522583     0.481114     0.434385
H     -1.308584     1.313979     0.321551
H     -1.964025    -0.214089     0.914995
H     -2.535777     0.462499    -0.611539
H     -0.294399     0.096145    -1.644974
H     -0.997288    -1.402166    -1.077450
H      0.408525    -1.277186     0.995823
H      1.315632    -1.444114    -0.491108
H      2.425484     0.194682     0.979046
H      0.969769     1.181309     1.064146
H      1.834937     1.018672    -0.465735
14
Iteration 10, Energy=-157.3083617064, |grad|=0.001257
C     -1.650875     0.323800     0.014530
C     -0.572002    -0.452846    -0.738199
C      0.690171    -0.749485     0.077438
C      1.522321     0.481215     0.434788
H     -1.308586     1.314585     0.320281
H     -1.963243    -0.212662     0.915318
H     -2.535880     0.462152    -0.611148
H     -0.294611     0.095270    -1.645640
H     -0.997716    -1.402316    -1.076747
H      0.408956    -1.277845     0.995448
H      1.315826    -1.443982    -0.491570
H      2.425798     0.194557     0.978651
H      0.969050     1.180210     1.065364
H      1.833992     1.019670    -0.464903
14
Iteration 1, Energy=-157.3083555732, |grad|=0.005104
C     -1.650571     0.324849     0.014900
C     -0.572509    -0.453078    -0.736504
C      0.689553    -0.749582     0.076307
C      1.521850     0.479880     0.435604
H     -1.308545     1.316704     0.317499
H     -1.961743    -0.209830     0.916009
H     -2.533907     0.459731    -0.614445
H     -0.295595     0.093603    -1.645845
H     -0.998773    -1.402589    -1.073701
H      0.409368    -1.278845     0.994533
H      1.315452    -1.443457    -0.493198
H      2.424702     0.194554     0.978113
H      0.969487     1.177787     1.068043
H      1.832043     1.022272    -0.463196
14
Iteration 2, Energy=-157.3083572461, |grad|=0.003664
C     -1.650413     0.324282     0.014108
C     -0.571610    -0.452550    -0.738540
C      0.690990    -0.749520     0.077118
C      1.522814     0.481487     0.434332
H     -1.309244     1.315088     0.320798
H     -1.963275    -0.212525     0.915123
H     -2.535747     0.461335    -0.610743
H     -0.295117     0.095377    -1.646383
H     -0.998325    -1.402002    -1.075312
H      0.409301    -1.277299     0.995253
H      1.315333    -1.444456    -0.492063
H      2.426730     0.194496     0.979046
H      0.967682     1.179134     1.065424
H      1.834566     1.020271    -0.464803
14
Iteration -1, Energy=-157.3083617064, |grad|=0.001257
C     -1.650875     0.323800     0.014530
C     -0.572002    -0.452846    -0.738199
C      0.690171    -0.749485     0.077438
C      1.522321     0.481215     0.434788
H     -1.308586     1.314585     0.320281
H     -1.963243    -0.212662     0.915318
H     -2.535880     0.462152    -0.611148
H     -0.294611     0.095270    -1.645640
H     -0.997716    -1.402316    -1.076747
H      0.408956    -1.277845     0.995448
H      1.315826    -1.443982    -0.491570
H      2.425798     0.194557     0.978651
H      0.969050     1.180210     1.065364
H      1.833992     1.019670    -0.464903
14
Iteration 1, Energy=-157.3083620722, |grad|=0.000803
C     -1.651120     0.323693     0.014568
C     -0.571946    -0.452858    -0.738160
C      0.690071    -0.749419     0.077385
C      1.522377     0.481018     0.434880
H     -1.308478     1.314713     0.320188
H     -1.963204    -0.212601     0.915362
H     -2.535896     0.462219    -0.611110
H     -0.294548     0.095251    -1.645660
H     -0.997734    -1.402453    -1.076813
H      0.408999    -1.277880     0.995423
H      1.315958    -1.443959    -0.491606
H      2.425702     0.194603     0.978600
H      0.969078     1.180302     1.065502
H      1.833943     1.019694    -0.464948
14
Iteration 2, Energy=-157.3083622928, |grad|=0.000753
C     -1.651196     0.323713     0.014600
C     -0.572003    -0.452904    -0.738173
C      0.690054    -0.749445     0.077361
C      1.522316     0.480997     0.434909
H     -1.308408     1.314752     0.320058
H     -1.963190    -0.212564     0.915459
H     -2.535974     0.462290    -0.611099
H     -0.294488     0.095226    -1.645662
H     -0.997718    -1.402554    -1.076868
H      0.409043    -1.277918     0.995380
H      1.316060    -1.443897    -0.491625
H      2.425678     0.194608     0.978592
H      0.969154     1.180341     1.065611
H      1.833874     1.019678    -0.464933
14
Iteration 3, Energy=-157.3083634103, |grad|=0.001102
C     -1.651528     0.323706     0.014482
C     -0.572512    -0.453441    -0.738432
C      0.689803    -0.749514     0.077155
C      1.521937     0.481112     0.435252
H     -1.307749     1.315021     0.318643
H     -1.963067    -0.211851     0.916378
H     -2.536760     0.462982    -0.610717
H     -0.294100     0.094781    -1.645456
H     -0.997551    -1.403369    -1.077385
H      0.409441    -1.278606     0.995073
H      1.317050    -1.443145    -0.491877
H      2.425350     0.194554     0.978404
H      0.969886     1.180590     1.066748
H      1.833003     1.019504    -0.464658
14
Iteration 4, Energy=-157.3083638402, |grad|=0.000879
C     -1.651649     0.323785     0.014550
C     -0.572585    -0.453741    -0.738374
C      0.689877    -0.749610     0.077275
C      1.521497     0.481036     0.435424
H     -1.307485     1.314947     0.317941
H     -1.962915    -0.211291     0.916509
H     -2.537032     0.463177    -0.610447
H     -0.294033     0.094608    -1.645508
H     -0.997526    -1.403692    -1.077608
H      0.409611    -1.278951     0.994846
H      1.317309    -1.442662    -0.491970
H      2.425379     0.194416     0.978348
H      0.970107     1.180683     1.067275
H      1.832648     1.019620    -0.464650
14
Iteration 5, Energy=-157.3083641476, |grad|=0.000662
C     -1.651538     0.323808     0.014402
C     -0.572606    -0.453849    -0.738361
C      0.689855    -0.749657     0.077340
C      1.521461     0.481117     0.435494
H     -1.307348     1.314909     0.317603
H     -1.962848    -0.210962     0.916591
H     -2.537134     0.463193    -0.610275
H     -0.294088     0.094474    -1.645502
H     -0.997518    -1.403787    -1.077669
H      0.409677    -1.279206     0.994785
H      1.317386    -1.442400    -0.492039
H      2.425363     0.194318     0.978264
H      0.970128     1.180677     1.067533
H      1.832413     1.019689    -0.464556
14
Iteration 6, Energy=-157.3083647413, |grad|=0.000703
C     -1.651175     0.323803     0.013989
C     -0.572653    -0.454247    -0.738439
C      0.689778    -0.749610     0.077517
C      1.521218     0.481349     0.435889
H     -1.306774     1.314940     0.316438
H     -1.962536    -0.209734     0.916817
H     -2.537440     0.463120    -0.609751
H     -0.294334     0.093953    -1.645490
H     -0.997495    -1.404038    -1.077770
H      0.409884    -1.280192     0.994673
H      1.317633    -1.441565    -0.492357
H      2.425377     0.193963     0.977937
H      0.970143     1.180532     1.068389
H      1.831575     1.020049    -0.464232
14
Iteration 7, Energy=-157.3083651606, |grad|=0.000926
C     -1.651048     0.324020     0.013772
C     -0.572668    -0.454377    -0.738347
C      0.689692    -0.749723     0.077616
C      1.521088     0.481351     0.436092
H     -1.306276     1.315155     0.315630
H     -1.962200    -0.208984     0.917094
H     -2.537501     0.462847    -0.609595
H     -0.294491     0.093619    -1.645693
H     -0.997536    -1.404299    -1.077681
H      0.410055    -1.280764     0.994474
H      1.317751    -1.441081    -0.492629
H      2.425429     0.193778     0.977668
H      0.969970     1.180357     1.069057
H      1.830936     1.020425    -0.463846
14
Iteration 8, Energy=-157.3083659560, |grad|=0.001130
C     -1.650769     0.324405     0.013549
C     -0.572762    -0.454623    -0.738313
C      0.689594    -0.749850     0.077630
C      1.520733     0.481311     0.436647
H     -1.305319     1.315746     0.314104
H     -1.961467    -0.207573     0.917635
H     -2.537593     0.462244    -0.609493
H     -0.294783     0.092934    -1.646074
H     -0.997624    -1.404727    -1.077336
H      0.410363    -1.281819     0.994131
H      1.317954    -1.440302    -0.493201
H      2.425545     0.193490     0.977137
H      0.969622     1.179848     1.070292
H      1.829707     1.021239    -0.463097
14
Iteration 9, Energy=-157.3083675470, |grad|=0.002278
C     -1.650032     0.325498     0.012833
C     -0.572882    -0.455424    -0.738328
C      0.689393    -0.749976     0.077484
C      1.519332     0.481231     0.437880
H     -1.303001     1.317745     0.309653
H     -1.959046    -0.203556     0.919351
H     -2.537460     0.460569    -0.609312
H     -0.295568     0.090831    -1.647049
H     -0.998106    -1.405822    -1.075859
H      0.411218    -1.284493     0.992846
H      1.318679    -1.438709    -0.495113
H      2.425999     0.192894     0.975865
H      0.968590     1.177848     1.074076
H      1.826087     1.023688    -0.460717
14
Iteration 10, Energy=-157.3083697660, |grad|=0.001613
C     -1.648894     0.326745     0.012466
C     -0.573179    -0.456146    -0.738267
C      0.689527    -0.750513     0.076753
C      1.518121     0.480952     0.439689
H     -1.300860     1.319982     0.304844
H     -1.956251    -0.199303     0.921164
H     -2.537357     0.458805    -0.609461
H     -0.296299     0.088555    -1.648191
H     -0.998774    -1.407030    -1.073991
H      0.412092    -1.287071     0.991393
H      1.319283    -1.437157    -0.497068
H      2.426161     0.192542     0.974402
H      0.967389     1.175390     1.078207
H      1.822243     1.026572    -0.458330
14
Iteration 1, Energy=-157.3083678017, |grad|=0.003068
C     -1.647906     0.327921     0.011746
C     -0.573457    -0.456753    -0.738355
C      0.689413    -0.750815     0.076503
C      1.516891     0.480934     0.440689
H     -1.298348     1.321850     0.301618
H     -1.953859    -0.196256     0.922703
H     -2.537949     0.457482    -0.608516
H     -0.297000     0.086896    -1.649306
H     -0.999214    -1.407932    -1.072757
H      0.412572    -1.289305     0.990428
H      1.320420    -1.435857    -0.498567
H      2.426508     0.191912     0.973092
H      0.966358     1.173296     1.080813
H      1.819059     1.028956    -0.456157
14
Iteration 2, Energy=-157.3083686271, |grad|=0.001933
C     -1.648604     0.326894     0.012643
C     -0.573215    -0.455965    -0.738221
C      0.689429    -0.750556     0.076654
C      1.518049     0.480839     0.439704
H     -1.300381     1.320124     0.305193
H     -1.956044    -0.199569     0.921201
H     -2.537019     0.458056    -0.609808
H     -0.296553     0.088756    -1.648236
H     -0.998733    -1.406910    -1.073619
H      0.411890    -1.286981     0.991428
H      1.319107    -1.437261    -0.497105
H      2.426200     0.192551     0.974266
H      0.966973     1.175235     1.077795
H      1.822183     1.026685    -0.458212
14
Iteration -1, Energy=-157.3083697660, |grad|=0.001613
C     -1.648894     0.326745     0.012466
C     -0.573179    -0.456146    -0.738267
C      0.689527    -0.750513     0.076753
C      1.518121     0.480952     0.439689
H     -1.300860     1.319982     0.304844
H     -1.956251    -0.199303     0.921164
H     -2.537357     0.458805    -0.609461
H     -0.296299     0.088555    -1.648191
H     -0.998774    -1.407030    -1.073991
H      0.412092    -1.287071     0.991393
H      1.319283    -1.437157    -0.497068
H      2.426161     0.192542     0.974402
H      0.967389     1.175390     1.078207
H      1.822243     1.026572    -0.458330
14
Iteration 1, Energy=-157.3083711606, |grad|=0.001953
C     -1.648636     0.326677     0.012663
C     -0.573256    -0.456370    -0.738585
C      0.689948    -0.750600     0.076538
C      1.517841     0.481177     0.439556
H     -1.301612     1.319998     0.304679
H     -1.956042    -0.199223     0.921147
H     -2.537382     0.459264    -0.609424
H     -0.296123     0.088399    -1.647992
H     -0.999001    -1.406963    -1.073720
H      0.412072    -1.286730     0.991172
H      1.319455    -1.437584    -0.497149
H      2.426114     0.192784     0.974715
H      0.967568     1.174828     1.078438
H      1.822256     1.026666    -0.458429
14
Iteration 2, Energy=-157.3083724882, |grad|=0.001143
C     -1.648626     0.326580     0.012532
C     -0.573128    -0.456463    -0.738553
C      0.690124    -0.750676     0.076217
C      1.517983     0.481127     0.439402
H     -1.302277     1.320155     0.304569
H     -1.955840    -0.199203     0.921226
H     -2.537270     0.459677    -0.609268
H     -0.295937     0.088286    -1.647947
H     -0.999310    -1.407050    -1.073511
H      0.412072    -1.286404     0.990975
H      1.319679    -1.438021    -0.497228
H      2.425911     0.193100     0.974925
H      0.967569     1.174402     1.078789
H      1.822251     1.026812    -0.458518
14
Iteration 3, Energy=-157.3083733801, |grad|=0.000692
C     -1.648638     0.326703     0.012508
C     -0.572949    -0.456466    -0.738502
C      0.690383    -0.750970     0.075837
C      1.518174     0.480940     0.439159
H     -1.303157     1.320567     0.304453
H     -1.955506    -0.199219     0.921329
H     -2.537227     0.460096    -0.609152
H     -0.295654     0.088062    -1.648173
H     -0.999781    -1.407234    -1.073176
H      0.412166    -1.285945     0.990715
H      1.319973    -1.438651    -0.497298
H      2.425808     0.193542     0.975217
H      0.967348     1.173656     1.079270
H      1.822262     1.027243    -0.458579
14
Iteration 4, Energy=-157.3083736785, |grad|=0.000899
C     -1.648689     0.326796     0.012377
C     -0.572948    -0.456515    -0.738610
C      0.690526    -0.750936     0.075551
C      1.518296     0.480899     0.439145
H     -1.303486     1.321023     0.304480
H     -1.955312    -0.199212     0.921389
H     -2.537198     0.460131    -0.609078
H     -0.295551     0.087821    -1.648383
H     -0.999978    -1.407148    -1.072907
H      0.412245    -1.285870     0.990775
H      1.320109    -1.439043    -0.497343
H      2.425853     0.193751     0.975278
H      0.967109     1.173066     1.079382
H      1.822226     1.027559    -0.458448
14
Iteration 5, Energy=-157.3083739950, |grad|=0.000686
C     -1.648621     0.326987     0.012396
C     -0.572915    -0.456394    -0.738659
C      0.690585    -0.751036     0.075507
C      1.518381     0.480847     0.439098
H     -1.303645     1.321294     0.304487
H     -1.955169    -0.199173     0.921373
H     -2.537261     0.460041    -0.609087
H     -0.295528     0.087609    -1.648613
H     -1.000115    -1.407126    -1.072737
H      0.412358    -1.285824     0.990761
H      1.320144    -1.439250    -0.497353
H      2.425964     0.193849     0.975272
H      0.966838     1.172665     1.079437
H      1.822188     1.027833    -0.458272
14
Iteration 6, Energy=-157.3083744472, |grad|=0.000649
C     -1.648453     0.327603     0.012422
C     -0.572807    -0.456177    -0.738638
C      0.690873    -0.751275     0.075360
C      1.518386     0.480585     0.439161
H     -1.303918     1.321976     0.304470
H     -1.954711    -0.198909     0.921199
H     -2.537388     0.459590    -0.609068
H     -0.295549     0.086998    -1.649394
H     -1.000437    -1.406902    -1.072228
H      0.412703    -1.285806     0.990737
H      1.320041    -1.439660    -0.497338
H      2.426409     0.194012     0.975143
H      0.965990     1.171575     1.079535
H      1.822065     1.028714    -0.457753
14
Iteration 7, Energy=-157.3083745565, |grad|=0.000829
C     -1.648286     0.327602     0.012325
C     -0.572704    -0.456062    -0.738784
C      0.690814    -0.751244     0.075454
C      1.518444     0.480653     0.439143
H     -1.303874     1.322153     0.304363
H     -1.954519    -0.198643     0.921140
H     -2.537361     0.459378    -0.609034
H     -0.295673     0.086699    -1.649441
H     -1.000526    -1.406757    -1.071998
H      0.412825    -1.285888     0.990661
H      1.319981    -1.439762    -0.497469
H      2.426500     0.193982     0.975002
H      0.965695     1.171302     1.079664
H      1.821887     1.028910    -0.457417
14
Iteration 8, Energy=-157.3083746681, |grad|=0.000406
C     -1.648255     0.327590     0.012300
C     -0.572731    -0.456116    -0.738711
C      0.690832    -0.751223     0.075405
C      1.518393     0.480668     0.439213
H     -1.303832     1.322049     0.304313
H     -1.954537    -0.198633     0.921172
H     -2.537340     0.459396    -0.609037
H     -0.295673     0.086764    -1.649401
H     -1.000499    -1.406780    -1.072031
H      0.412786    -1.285917     0.990666
H      1.319952    -1.439684    -0.497474
H      2.426456     0.193951     0.974988
H      0.965776     1.171400     1.079681
H      1.821875     1.028857    -0.457474
14
Iteration 9, Energy=-157.3083747791, |grad|=0.000347
C     -1.648170     0.327599     0.012237
C     -0.572715    -0.456174    -0.738641
C      0.690874    -0.751207     0.075340
C      1.518312     0.480677     0.439313
H     -1.303786     1.322017     0.304149
H     -1.954426    -0.198478     0.921205
H     -2.537276     0.459343    -0.609023
H     -0.295700     0.086718    -1.649412
H     -1.000538    -1.406781    -1.071944
H      0.412791    -1.285974     0.990609
H      1.319895    -1.439636    -0.497556
H      2.426434     0.193917     0.974926
H      0.965746     1.171371     1.079831
H      1.821763     1.028932    -0.457424
14
Iteration 10, Energy=-157.3083749547, |grad|=0.000618
C     -1.647993     0.327659     0.012123
C     -0.572665    -0.456258    -0.738569
C      0.690948    -0.751208     0.075231
C      1.518168     0.480689     0.439482
H     -1.303694     1.322097     0.303755
H     -1.954110    -0.198094     0.921295
H     -2.537147     0.459183    -0.609005
H     -0.295758     0.086522    -1.649500
H     -1.000674    -1.406800    -1.071676
H      0.412849    -1.286102     0.990457
H      1.319808    -1.439596    -0.497780
H      2.426423     0.193868     0.974787
H      0.965584     1.171163     1.080228
H      1.821464     1.029201    -0.457220
14
Iteration 1, Energy=-157.3083458822, |grad|=0.011749
C     -1.649904     0.329255     0.013188
C     -0.574755    -0.455457    -0.740592
C      0.689028    -0.752499     0.075077
C      1.518712     0.480453     0.438500
H     -1.304368     1.325091     0.301783
H     -1.952430    -0.196958     0.922009
H     -2.538901     0.459686    -0.610000
H     -0.295294     0.085157    -1.650605
H     -1.001116    -1.407379    -1.070722
H      0.413109    -1.286477     0.989458
H      1.322996    -1.441121    -0.498903
H      2.425420     0.194558     0.975163
H      0.966182     1.167269     1.082453
H      1.819235     1.031509    -0.455628
14
Iteration 2, Energy=-157.3083709436, |grad|=0.003864
C     -1.646868     0.328240     0.011682
C     -0.571852    -0.456282    -0.738023
C      0.691922    -0.751260     0.075008
C      1.517958     0.480550     0.439886
H     -1.304038     1.323329     0.303230
H     -1.953141    -0.196687     0.920304
H     -2.536651     0.458535    -0.608430
H     -0.295887     0.084924    -1.650463
H     -1.001272    -1.406380    -1.071084
H      0.413555    -1.286743     0.990539
H      1.319171    -1.439861    -0.497361
H      2.427095     0.193911     0.974522
H      0.963984     1.169553     1.080663
H      1.820628     1.030618    -0.456325
14
Iteration -1, Energy=-157.3083749546, |grad|=0.000618
C     -1.647993     0.327659     0.012123
C     -0.572665    -0.456258    -0.738569
C      0.690948    -0.751208     0.075231
C      1.518168     0.480689     0.439482
H     -1.303694     1.322097     0.303755
H     -1.954110    -0.198094     0.921295
H     -2.537147     0.459183    -0.609005
H     -0.295758     0.086522    -1.649500
H     -1.000674    -1.406800    -1.071676
H      0.412849    -1.286102     0.990457
H      1.319808    -1.439596    -0.497780
H      2.426423     0.193868     0.974787
H      0.965584     1.171163     1.080228
H      1.821464     1.029201    -0.457220
14
Iteration 1, Energy=-157.3083750385, |grad|=0.000383
C     -1.648035     0.327641     0.012179
C     -0.572668    -0.456231    -0.738657
C      0.690887    -0.751231     0.075312
C      1.518184     0.480701     0.439415
H     -1.303640     1.322169     0.303714
H     -1.954090    -0.198080     0.921331
H     -2.537155     0.459180    -0.609037
H     -0.295756     0.086502    -1.649481
H     -1.000676    -1.406863    -1.071673
H      0.412860    -1.286114     0.990424
H      1.319859    -1.439586    -0.497822
H      2.426421     0.193865     0.974803
H      0.965593     1.171161     1.080283
H      1.821419     1.029208    -0.457183
14
Iteration 2, Energy=-157.3083750894, |grad|=0.000358
C     -1.648055     0.327662     0.012199
C     -0.572699    -0.456248    -0.738681
C      0.690867    -0.751244     0.075307
C      1.518172     0.480699     0.439417
H     -1.303590     1.322225     0.303659
H     -1.954071    -0.198071     0.921389
H     -2.537162     0.459176    -0.609061
H     -0.295744     0.086499    -1.649491
H     -1.000673    -1.406919    -1.071671
H      0.412858    -1.286147     0.990422
H      1.319896    -1.439553    -0.497847
H      2.426413     0.193865     0.974811
H      0.965617     1.171146     1.080332
H      1.821375     1.029233    -0.457175
14
Iteration 3, Energy=-157.3083753203, |grad|=0.000430
C     -1.648083     0.327792     0.012279
C     -0.572852    -0.456373    -0.738722
C      0.690783    -0.751319     0.075263
C      1.518031     0.480667     0.439491
H     -1.303290     1.322466     0.303174
H     -1.953882    -0.197841     0.921701
H     -2.537206     0.459154    -0.609139
H     -0.295723     0.086414    -1.649539
H     -1.000673    -1.407272    -1.071652
H      0.412859    -1.286398     0.990322
H      1.320107    -1.439271    -0.498018
H      2.426339     0.193848     0.974812
H      0.965777     1.171029     1.080725
H      1.821015     1.029428    -0.457088
14
Iteration 4, Energy=-157.3083754988, |grad|=0.000922
C     -1.648129     0.327862     0.012129
C     -0.573033    -0.456724    -0.738832
C      0.690695    -0.751337     0.075171
C      1.517861     0.480690     0.439649
H     -1.302842     1.322825     0.302406
H     -1.953560    -0.197318     0.922140
H     -2.537178     0.459104    -0.609076
H     -0.295783     0.086181    -1.649539
H     -1.000653    -1.407575    -1.071540
H      0.412880    -1.286849     0.990149
H      1.320392    -1.438856    -0.498304
H      2.426227     0.193787     0.974724
H      0.965927     1.170831     1.081387
H      1.820398     1.029702    -0.456854
14
Iteration 5, Energy=-157.3083757878, |grad|=0.000689
C     -1.647975     0.327959     0.012118
C     -0.573108    -0.456862    -0.738815
C      0.690662    -0.751392     0.075118
C      1.517648     0.480695     0.439834
H     -1.302548     1.322959     0.301736
H     -1.953284    -0.196813     0.922397
H     -2.537248     0.459066    -0.609044
H     -0.295860     0.085959    -1.649563
H     -1.000686    -1.407872    -1.071476
H      0.412924    -1.287191     0.989956
H      1.320579    -1.438515    -0.498519
H      2.426172     0.193719     0.974626
H      0.966013     1.170663     1.081921
H      1.819915     1.029949    -0.456679
14
Iteration 6, Energy=-157.3083764590, |grad|=0.000690
C     -1.647547     0.328218     0.011882
C     -0.573215    -0.457364    -0.738692
C      0.690625    -0.751516     0.075009
C      1.517013     0.480691     0.440435
H     -1.301664     1.323318     0.299618
H     -1.952359    -0.195030     0.923087
H     -2.537371     0.458889    -0.608752
H     -0.296178     0.085170    -1.649700
H     -1.000826    -1.408616    -1.071204
H      0.413127    -1.288285     0.989276
H      1.321099    -1.437504    -0.499208
H      2.426056     0.193465     0.974200
H      0.966073     1.170141     1.083676
H      1.818369     1.030746    -0.456017
14
Iteration 7, Energy=-157.3083769844, |grad|=0.000948
C     -1.647085     0.328456     0.011574
C     -0.573321    -0.457828    -0.738769
C      0.690697    -0.751645     0.074880
C      1.516415     0.480818     0.441127
H     -1.300825     1.323797     0.297612
H     -1.951423    -0.193185     0.923720
H     -2.537518     0.458600    -0.608426
H     -0.296518     0.084253    -1.649937
H     -1.000991    -1.409124    -1.070777
H      0.413439    -1.289391     0.988663
H      1.321526    -1.436676    -0.499886
H      2.426083     0.193195     0.973655
H      0.965871     1.169477     1.085370
H      1.816854     1.031577    -0.455195
14
Iteration 8, Energy=-157.3083776154, |grad|=0.001256
C     -1.646352     0.329130     0.010835
C     -0.573295    -0.458618    -0.738636
C      0.690649    -0.751774     0.074657
C      1.515491     0.480744     0.442282
H     -1.299302     1.324849     0.293907
H     -1.949602    -0.189757     0.924955
H     -2.537736     0.457921    -0.607765
H     -0.297100     0.082507    -1.650739
H     -1.001452    -1.410118    -1.069896
H      0.414167    -1.291432     0.987495
H      1.322372    -1.435372    -0.501218
H      2.426221     0.192777     0.972556
H      0.965115     1.168158     1.088674
H      1.814026     1.033307    -0.453496
14
Iteration 9, Energy=-157.3083783467, |grad|=0.000881
C     -1.646131     0.329473     0.010601
C     -0.573351    -0.458893    -0.738829
C      0.690871    -0.752004     0.074516
C      1.515030     0.480802     0.442818
H     -1.298767     1.325553     0.292495
H     -1.948749    -0.188309     0.925372
H     -2.537814     0.457496    -0.607517
H     -0.297297     0.081628    -1.651249
H     -1.001704    -1.410318    -1.069305
H      0.414609    -1.292208     0.987041
H      1.322579    -1.435020    -0.501716
H      2.426468     0.192655     0.972059
H      0.964555     1.167273     1.089949
H      1.812904     1.034193    -0.452626
14
Iteration 10, Energy=-157.3083794661, |grad|=0.001191
C     -1.645655     0.330253     0.010202
C     -0.573428    -0.459236    -0.739152
C      0.691146    -0.752331     0.074171
C      1.514464     0.480770     0.443643
H     -1.298030     1.326993     0.290246
H     -1.947258    -0.186024     0.926140
H     -2.537996     0.456684    -0.607215
H     -0.297535     0.080058    -1.652299
H     -1.002254    -1.410637    -1.068157
H      0.415452    -1.293445     0.986370
H      1.322957    -1.434733    -0.502592
H      2.426908     0.192612     0.971220
H      0.963374     1.165481     1.092063
H      1.811057     1.035876    -0.451029
14
Iteration 1, Energy=-157.3083744219, |grad|=0.004444
C     -1.644157     0.330909     0.009094
C     -0.573572    -0.460887    -0.738641
C      0.690750    -0.752504     0.073874
C      1.513579     0.480893     0.445158
H     -1.296309     1.328159     0.287529
H     -1.945139    -0.183461     0.926938
H     -2.538004     0.455726    -0.606124
H     -0.298401     0.077926    -1.652935
H     -1.002847    -1.411535    -1.066898
H      0.416470    -1.294571     0.985025
H      1.324696    -1.430864    -0.503944
H      2.426476     0.191499     0.970046
H      0.963155     1.164271     1.095071
H      1.808180     1.038174    -0.448813
14
Iteration 2, Energy=-157.3083783146, |grad|=0.002838
C     -1.645932     0.330489     0.010246
C     -0.573445    -0.458866    -0.739674
C      0.691595    -0.752479     0.074184
C      1.514378     0.480793     0.443726
H     -1.298042     1.327403     0.289662
H     -1.947128    -0.185327     0.926252
H     -2.538292     0.456575    -0.607192
H     -0.297432     0.079739    -1.652853
H     -1.002298    -1.410474    -1.068017
H      0.415685    -1.293850     0.986388
H      1.322540    -1.435904    -0.502605
H      2.427531     0.192893     0.971015
H      0.962551     1.164838     1.092405
H      1.810807     1.036020    -0.450713
14
Iteration -1, Energy=-157.3083794661, |grad|=0.001191
C     -1.645655     0.330253     0.010202
C     -0.573428    -0.459236    -0.739152
C      0.691146    -0.752331     0.074171
C      1.514464     0.480770     0.443643
H     -1.298030     1.326993     0.290246
H     -1.947258    -0.186024     0.926140
H     -2.537996     0.456684    -0.607215
H     -0.297535     0.080058    -1.652299
H     -1.002254    -1.410637    -1.068157
H      0.415452    -1.293445     0.986370
H      1.322957    -1.434733    -0.502592
H      2.426908     0.192612     0.971220
H      0.963374     1.165481     1.092063
H      1.811057     1.035876    -0.451029
14
Iteration 1, Energy=-157.3083798895, |grad|=0.000997
C     -1.645477     0.330433     0.010229
C     -0.573375    -0.459111    -0.738929
C      0.691007    -0.752272     0.074025
C      1.514556     0.480605     0.443540
H     -1.298189     1.327076     0.290229
H     -1.947196    -0.186165     0.926228
H     -2.538038     0.456712    -0.607336
H     -0.297454     0.080047    -1.652353
H     -1.002381    -1.410832    -1.068142
H      0.415434    -1.293381     0.986402
H      1.323045    -1.434860    -0.502647
H      2.426825     0.192757     0.971332
H      0.963393     1.165273     1.092095
H      1.811052     1.036041    -0.451063
14
Iteration 2, Energy=-157.3083801981, |grad|=0.000793
C     -1.645503     0.330485     0.010281
C     -0.573403    -0.459112    -0.738953
C      0.691037    -0.752335     0.073971
C      1.514564     0.480566     0.443441
H     -1.298304     1.327233     0.290240
H     -1.947109    -0.186235     0.926237
H     -2.537986     0.456727    -0.607394
H     -0.297395     0.080008    -1.652345
H     -1.002444    -1.410862    -1.068062
H      0.415424    -1.293299     0.986391
H      1.323059    -1.434935    -0.502672
H      2.426793     0.192855     0.971443
H      0.963423     1.165056     1.092100
H      1.811047     1.036171    -0.451069
14
Iteration 3, Energy=-157.3083808892, |grad|=0.001008
C     -1.645504     0.330779     0.010327
C     -0.573503    -0.459278    -0.739027
C      0.691296    -0.752567     0.073595
C      1.514850     0.480337     0.443052
H     -1.299073     1.328011     0.290326
H     -1.946610    -0.186512     0.926241
H     -2.537647     0.456764    -0.607587
H     -0.297116     0.079740    -1.652370
H     -1.002831    -1.410750    -1.067484
H      0.415398    -1.292858     0.986358
H      1.323053    -1.435516    -0.502861
H      2.426580     0.193385     0.971893
H      0.963300     1.163871     1.092206
H      1.811008     1.036916    -0.451060
14
Iteration 4, Energy=-157.3083810985, |grad|=0.000534
C     -1.645430     0.330793     0.010402
C     -0.573391    -0.459086    -0.739039
C      0.691382    -0.752674     0.073561
C      1.514757     0.480391     0.442932
H     -1.299283     1.328166     0.290337
H     -1.946469    -0.186500     0.926169
H     -2.537608     0.456753    -0.607642
H     -0.297083     0.079611    -1.652385
H     -1.003001    -1.410785    -1.067337
H      0.415435    -1.292731     0.986312
H      1.323017    -1.435712    -0.502926
H      2.426669     0.193455     0.972008
H      0.963202     1.163546     1.092224
H      1.811006     1.037096    -0.451007
14
Iteration 5, Energy=-157.3083811921, |grad|=0.000428
C     -1.645389     0.330806     0.010377
C     -0.573337    -0.459066    -0.739016
C      0.691420    -0.752664     0.073556
C      1.514750     0.480396     0.442970
H     -1.299320     1.328146     0.290339
H     -1.946449    -0.186447     0.926137
H     -2.537603     0.456720    -0.607621
H     -0.297095     0.079581    -1.652441
H     -1.003037    -1.410731    -1.067287
H      0.415468    -1.292725     0.986304
H      1.322980    -1.435775    -0.502942
H      2.426720     0.193437     0.971963
H      0.963089     1.163527     1.092245
H      1.811006     1.037119    -0.450972
14
Iteration 6, Energy=-157.3083814211, |grad|=0.000455
C     -1.645160     0.330917     0.010223
C     -0.573123    -0.458872    -0.739014
C      0.691608    -0.752712     0.073449
C      1.514874     0.480406     0.443112
H     -1.299580     1.328336     0.290366
H     -1.946243    -0.186223     0.926047
H     -2.537536     0.456475    -0.607588
H     -0.297109     0.079309    -1.652771
H     -1.003296    -1.410448    -1.066866
H      0.415697    -1.292646     0.986265
H      1.322792    -1.436226    -0.503066
H      2.426929     0.193469     0.971733
H      0.962401     1.163142     1.092381
H      1.810948     1.037393    -0.450660
14
Iteration 7, Energy=-157.3083814697, |grad|=0.000260
C     -1.645134     0.331029     0.010247
C     -0.573102    -0.458900    -0.738997
C      0.691672    -0.752691     0.073394
C      1.514786     0.480368     0.443133
H     -1.299641     1.328413     0.290347
H     -1.946163    -0.186182     0.926034
H     -2.537516     0.456404    -0.607609
H     -0.297086     0.079254    -1.652886
H     -1.003351    -1.410392    -1.066753
H      0.415747    -1.292639     0.986264
H      1.322761    -1.436323    -0.503098
H      2.427014     0.193494     0.971725
H      0.962287     1.162975     1.092402
H      1.810927     1.037512    -0.450595
14
Iteration 8, Energy=-157.3083814915, |grad|=0.000196
C     -1.645148     0.331066     0.010259
C     -0.573112    -0.458898    -0.739005
C      0.691676    -0.752717     0.073378
C      1.514793     0.480338     0.443118
H     -1.299651     1.328489     0.290331
H     -1.946120    -0.186174     0.926046
H     -2.537499     0.456377    -0.607627
H     -0.297072     0.079223    -1.652917
H     -1.003372    -1.410398    -1.066709
H      0.415766    -1.292634     0.986252
H      1.322764    -1.436339    -0.503108
H      2.427012     0.193526     0.971730
H      0.962262     1.162891     1.092424
H      1.810902     1.037575    -0.450561
