14
Iteration 0, Energy=-157.1975670744, |grad|=0.608358
C     -1.696988     0.362703     0.016289
C     -0.500326    -0.495554    -0.762883
C      0.648777    -0.625643     0.039120
C      1.542206     0.560162     0.492103
H     -0.891526     0.811676     0.792323
H     -2.492025    -0.270322     0.454100
H     -2.113865     1.008321    -0.712652
H     -0.493179    -0.283247    -1.809260
H     -1.072467    -1.581967    -0.827917
H      0.381313    -1.088993     1.044971
H      1.411071    -1.525331    -0.470382
H      2.626813     0.523942     0.783611
H      0.939965     1.063048     1.258608
H      1.549488     1.071967    -0.520914
14
Iteration 1, Energy=-157.2548488766, |grad|=0.314848
C     -1.658899     0.314989     0.011712
C     -0.593980    -0.486766    -0.756041
C      0.752296    -0.711625     0.053148
C      1.537785     0.602642     0.443481
H     -0.921291     0.823427     0.794948
H     -2.472923    -0.257204     0.453684
H     -2.123217     1.034793    -0.721454
H     -0.478530    -0.268364    -1.824230
H     -1.063930    -1.584872    -0.824351
H      0.371000    -1.105055     1.049570
H      1.380994    -1.488006    -0.448774
H      2.603402     0.504381     0.783050
H      0.952801     1.072004     1.254099
H      1.553750     1.080418    -0.491724
14
Iteration 2, Energy=-157.2774031098, |grad|=0.151244
C     -1.625531     0.337884     0.007064
C     -0.609275    -0.541402    -0.750417
C      0.751259    -0.722610     0.070588
C      1.535013     0.581740     0.444877
H     -0.962288     0.821485     0.780946
H     -2.465034    -0.257132     0.457120
H     -2.118239     1.034778    -0.705938
H     -0.473450    -0.257018    -1.821392
H     -1.048727    -1.562008    -0.824250
H      0.378719    -1.111970     1.036375
H      1.372540    -1.475265    -0.440865
H      2.586166     0.495954     0.780216
H      0.961938     1.079012     1.243672
H      1.556166     1.107316    -0.500879
14
Iteration 3, Energy=-157.2874388850, |grad|=0.136625
C     -1.605960     0.338810     0.003272
C     -0.609009    -0.582450    -0.750224
C      0.738913    -0.732384     0.086816
C      1.518552     0.561397     0.422848
H     -1.018597     0.827497     0.764604
H     -2.435907    -0.243400     0.455910
H     -2.106284     1.038782    -0.683622
H     -0.465488    -0.246619    -1.801369
H     -1.034181    -1.548262    -0.824309
H      0.390691    -1.129143     1.025390
H      1.365334    -1.462198    -0.429450
H      2.565251     0.477767     0.777787
H      0.976311     1.090264     1.226797
H      1.559632     1.140702    -0.497333
14
Iteration 4, Energy=-157.2936815052, |grad|=0.093420
C     -1.595040     0.328784    -0.013845
C     -0.599782    -0.582040    -0.741230
C      0.728890    -0.737337     0.085637
C      1.503947     0.550323     0.410539
H     -1.060316     0.841893     0.761134
H     -2.413070    -0.234730     0.457361
H     -2.094154     1.043283    -0.665704
H     -0.455410    -0.240210    -1.781130
H     -1.030545    -1.561095    -0.827370
H      0.399309    -1.149900     1.026468
H      1.361714    -1.454310    -0.419501
H      2.542629     0.456658     0.772461
H      0.989255     1.099626     1.207374
H      1.561828     1.169818    -0.495075
14
Iteration 5, Energy=-157.2980832619, |grad|=0.078789
C     -1.594587     0.314805    -0.022758
C     -0.582272    -0.594992    -0.729782
C      0.701665    -0.729422     0.083055
C      1.488054     0.561035     0.377024
H     -1.118073     0.881799     0.770951
H     -2.381327    -0.233021     0.460335
H     -2.077009     1.058870    -0.655812
H     -0.425682    -0.228301    -1.747051
H     -1.020604    -1.579768    -0.835549
H      0.415905    -1.193973     1.037509
H      1.368106    -1.457362    -0.413879
H      2.500741     0.404715     0.757777
H      1.001793     1.119508     1.175747
H      1.562547     1.206868    -0.480451
14
Iteration 6, Energy=-157.2998370584, |grad|=0.044064
C     -1.596730     0.324750    -0.018581
C     -0.582586    -0.585947    -0.726467
C      0.709967    -0.738363     0.081598
C      1.477235     0.559641     0.383313
H     -1.126683     0.893745     0.775520
H     -2.385340    -0.243560     0.465129
H     -2.072817     1.059757    -0.661507
H     -0.410754    -0.225632    -1.738750
H     -1.019409    -1.590212    -0.839862
H      0.424116    -1.202494     1.038643
H      1.366007    -1.454128    -0.411298
H      2.492971     0.383779     0.750325
H      1.000170     1.129048     1.168377
H      1.563110     1.220379    -0.489322
14
Iteration 7, Energy=-157.3006470832, |grad|=0.030880
C     -1.601574     0.329528    -0.012376
C     -0.586162    -0.583330    -0.720456
C      0.712569    -0.740572     0.084612
C      1.475864     0.561060     0.381549
H     -1.127188     0.903241     0.781347
H     -2.390637    -0.251808     0.467485
H     -2.072191     1.059881    -0.670214
H     -0.397788    -0.222676    -1.736607
H     -1.017749    -1.592212    -0.843223
H      0.431227    -1.206657     1.038409
H      1.367934    -1.454732    -0.413346
H      2.488443     0.368662     0.744337
H      0.994078     1.137839     1.168176
H      1.562428     1.222538    -0.492577
14
Iteration 8, Energy=-157.3013175171, |grad|=0.027428
C     -1.610506     0.333729    -0.000502
C     -0.589889    -0.582655    -0.714467
C      0.713038    -0.740624     0.087316
C      1.469479     0.566618     0.382304
H     -1.131814     0.918595     0.788830
H     -2.398137    -0.260045     0.468991
H     -2.072533     1.054782    -0.684048
H     -0.373939    -0.217248    -1.723616
H     -1.013987    -1.585618    -0.848794
H      0.447141    -1.214326     1.041556
H      1.371050    -1.453325    -0.419262
H      2.482111     0.342125     0.733573
H      0.986404     1.149640     1.162365
H      1.560839     1.219116    -0.497127
14
Iteration 9, Energy=-157.3016934121, |grad|=0.031067
C     -1.611728     0.335671     0.000269
C     -0.588243    -0.578091    -0.702881
C      0.710271    -0.741105     0.092091
C      1.471694     0.561791     0.376302
H     -1.139818     0.926509     0.790348
H     -2.405565    -0.261472     0.469997
H     -2.074948     1.043364    -0.690091
H     -0.356417    -0.209676    -1.711310
H     -1.014041    -1.577371    -0.854128
H      0.462452    -1.218322     1.044138
H      1.371517    -1.446082    -0.425457
H      2.475226     0.327152     0.726071
H      0.979650     1.159319     1.161208
H      1.559207     1.209074    -0.499439
14
Iteration 10, Energy=-157.3020072494, |grad|=0.021922
C     -1.613255     0.333044     0.001496
C     -0.586555    -0.577085    -0.698971
C      0.709684    -0.740352     0.094502
C      1.469422     0.559927     0.378265
H     -1.144028     0.928151     0.789132
H     -2.407353    -0.258195     0.468760
H     -2.078182     1.036548    -0.692746
H     -0.349834    -0.204881    -1.704381
H     -1.014965    -1.570338    -0.856295
H      0.469831    -1.219267     1.046775
H      1.370702    -1.441207    -0.429526
H      2.475432     0.323651     0.724447
H      0.979590     1.159668     1.158061
H      1.558768     1.201099    -0.502403
14
Iteration 11, Energy=-157.3024695965, |grad|=0.017363
C     -1.616716     0.330315     0.001682
C     -0.581463    -0.571951    -0.691810
C      0.710225    -0.741044     0.101736
C      1.467684     0.556164     0.381562
H     -1.157631     0.932177     0.784531
H     -2.413770    -0.250854     0.467400
H     -2.088617     1.016527    -0.699568
H     -0.333608    -0.188533    -1.683215
H     -1.019364    -1.554651    -0.862894
H      0.489330    -1.224311     1.057558
H      1.367352    -1.426546    -0.441319
H      2.476619     0.318586     0.722999
H      0.981515     1.158747     1.149916
H      1.557699     1.176136    -0.511462
14
Iteration 12, Energy=-157.3026731172, |grad|=0.021561
C     -1.620755     0.326556     0.001200
C     -0.581815    -0.569565    -0.683140
C      0.711484    -0.742917     0.108120
C      1.468793     0.549883     0.382161
H     -1.168601     0.939632     0.782979
H     -2.415788    -0.249067     0.468386
H     -2.097392     1.008511    -0.706948
H     -0.322626    -0.172839    -1.672689
H     -1.021927    -1.549651    -0.868875
H      0.500661    -1.231861     1.065346
H      1.366262    -1.419758    -0.448758
H      2.478159     0.317971     0.725235
H      0.984530     1.159837     1.145341
H      1.558270     1.164029    -0.521243
14
Iteration 13, Energy=-157.3028923940, |grad|=0.015808
C     -1.626286     0.328319     0.000603
C     -0.581139    -0.566626    -0.679395
C      0.712573    -0.748026     0.114674
C      1.471903     0.547468     0.380650
H     -1.178828     0.946665     0.780346
H     -2.418454    -0.250364     0.471182
H     -2.105751     1.001397    -0.713360
H     -0.315322    -0.158009    -1.661880
H     -1.024029    -1.547471    -0.874833
H      0.509524    -1.239730     1.071674
H      1.365152    -1.415620    -0.454859
H      2.481906     0.320706     0.729837
H      0.988544     1.160264     1.141702
H      1.559464     1.151789    -0.529225
14
Iteration 14, Energy=-157.3030716802, |grad|=0.024579
C     -1.635079     0.333452    -0.000810
C     -0.583473    -0.565145    -0.674256
C      0.716187    -0.753816     0.118042
C      1.481623     0.541572     0.379634
H     -1.198538     0.962385     0.773891
H     -2.421665    -0.257489     0.479122
H     -2.120372     0.992484    -0.722621
H     -0.307172    -0.133908    -1.643149
H     -1.022870    -1.542852    -0.886135
H      0.519942    -1.257555     1.080741
H      1.362533    -1.416017    -0.459872
H      2.487316     0.329975     0.738732
H      0.996985     1.163212     1.134602
H      1.563837     1.134463    -0.540802
14
Iteration 15, Energy=-157.3032190531, |grad|=0.013411
C     -1.639746     0.332800     0.000174
C     -0.583243    -0.560203    -0.673208
C      0.716246    -0.757657     0.122255
C      1.483443     0.541939     0.377834
H     -1.202625     0.968852     0.771770
H     -2.421465    -0.260879     0.482085
H     -2.125257     0.991049    -0.725175
H     -0.307775    -0.128822    -1.639378
H     -1.021399    -1.543224    -0.890182
H      0.520976    -1.261151     1.077111
H      1.362267    -1.421082    -0.459692
H      2.491847     0.334064     0.742347
H      0.999128     1.164912     1.132792
H      1.566860     1.130165    -0.541617
14
Iteration 16, Energy=-157.3032971768, |grad|=0.011288
C     -1.641546     0.332587     0.001301
C     -0.582762    -0.559123    -0.672157
C      0.716261    -0.757586     0.121716
C      1.484212     0.541924     0.378321
H     -1.204250     0.972065     0.770051
H     -2.420889    -0.262718     0.483658
H     -2.127257     0.989677    -0.724837
H     -0.309063    -0.128041    -1.638928
H     -1.019098    -1.541320    -0.891938
H      0.519968    -1.262350     1.073709
H      1.361642    -1.425562    -0.457811
H      2.493527     0.335549     0.742960
H      0.999348     1.166469     1.131441
H      1.569164     1.129192    -0.540370
14
Iteration 17, Energy=-157.3034619024, |grad|=0.011615
C     -1.646872     0.330177     0.005714
C     -0.580601    -0.551376    -0.668164
C      0.719164    -0.758291     0.121125
C      1.489012     0.538544     0.380793
H     -1.216668     0.988591     0.762678
H     -2.420321    -0.269244     0.491789
H     -2.140780     0.977352    -0.726537
H     -0.308328    -0.117325    -1.631362
H     -1.011394    -1.530954    -0.901316
H      0.520189    -1.270588     1.066913
H      1.357044    -1.438334    -0.453287
H      2.499256     0.338245     0.745461
H      0.999968     1.173773     1.123608
H      1.579589     1.120192    -0.540297
14
Iteration 18, Energy=-157.3034851633, |grad|=0.031103
C     -1.655133     0.330120     0.006058
C     -0.576252    -0.548413    -0.662231
C      0.718765    -0.759849     0.125982
C      1.496507     0.536197     0.382032
H     -1.233576     1.007369     0.753673
H     -2.415660    -0.274711     0.503644
H     -2.161353     0.954415    -0.726415
H     -0.305447    -0.094283    -1.627736
H     -1.004583    -1.516986    -0.912350
H      0.518673    -1.278802     1.065416
H      1.352044    -1.449210    -0.452674
H      2.507914     0.341401     0.753158
H      1.002987     1.177063     1.111935
H      1.594371     1.106453    -0.543374
14
Iteration 19, Energy=-157.3036301244, |grad|=0.013560
C     -1.653149     0.328895     0.007940
C     -0.576028    -0.544928    -0.663984
C      0.720171    -0.759862     0.124669
C      1.496770     0.534582     0.382155
H     -1.234137     1.007303     0.753349
H     -2.415957    -0.274493     0.503992
H     -2.162547     0.953417    -0.727805
H     -0.304110    -0.094765    -1.625373
H     -1.005165    -1.517115    -0.912672
H      0.519260    -1.278465     1.066994
H      1.351236    -1.447215    -0.452444
H      2.506465     0.339199     0.752232
H      1.001891     1.178027     1.112022
H      1.594558     1.106181    -0.543959
14
Iteration 20, Energy=-157.3037391399, |grad|=0.009773
C     -1.652655     0.327393     0.009434
C     -0.574584    -0.539800    -0.665722
C      0.721480    -0.760386     0.124939
C      1.499452     0.532222     0.382304
H     -1.239230     1.012710     0.750344
H     -2.413150    -0.276161     0.509396
H     -2.171496     0.943638    -0.728767
H     -0.301982    -0.087445    -1.623263
H     -1.004042    -1.513329    -0.916137
H      0.517326    -1.278712     1.069253
H      1.348680    -1.447585    -0.451871
H      2.507351     0.336520     0.754550
H      1.001512     1.179100     1.108279
H      1.600594     1.102599    -0.545623
14
Iteration 21, Energy=-157.3039320506, |grad|=0.018785
C     -1.653731     0.324267     0.012312
C     -0.570668    -0.528345    -0.669102
C      0.722818    -0.761188     0.126467
C      1.507415     0.526988     0.382060
H     -1.252573     1.028832     0.741389
H     -2.403086    -0.282490     0.525991
H     -2.197135     0.916235    -0.730170
H     -0.297663    -0.065983    -1.620281
H     -0.999793    -1.502369    -0.926306
H      0.509559    -1.278287     1.073148
H      1.342486    -1.451821    -0.449719
H      2.511127     0.330520     0.762931
H      1.001502     1.181340     1.097480
H      1.618998     1.093064    -0.549083
14
Iteration 22, Energy=-157.3042377123, |grad|=0.028862
C     -1.658242     0.320102     0.016362
C     -0.565339    -0.510276    -0.674363
C      0.722919    -0.761100     0.127875
C      1.520571     0.519069     0.381236
H     -1.272773     1.056469     0.724267
H     -2.381527    -0.296508     0.557361
H     -2.241874     0.869202    -0.731619
H     -0.291149    -0.029830    -1.616471
H     -0.991906    -1.483465    -0.944823
H      0.493324    -1.273110     1.077081
H      1.332977    -1.460762    -0.444713
H      2.516971     0.319248     0.779501
H      1.002808     1.184283     1.079098
H      1.652499     1.077441    -0.553674
14
Iteration 23, Energy=-157.3048374459, |grad|=0.046745
C     -1.671656     0.312815     0.024327
C     -0.556901    -0.471032    -0.688486
C      0.719440    -0.756751     0.127408
C      1.549126     0.503056     0.378424
H     -1.313304     1.114624     0.678254
H     -2.321950    -0.332435     0.633213
H     -2.341082     0.761909    -0.729522
H     -0.277486     0.047190    -1.607181
H     -0.974738    -1.440450    -0.988993
H      0.452578    -1.249741     1.081452
H      1.312612    -1.480281    -0.430459
H      2.523750     0.287977     0.819633
H      1.008164     1.190303     1.039644
H      1.730702     1.043579    -0.560598
14
Iteration 24, Energy=-157.3055396593, |grad|=0.049940
C     -1.683965     0.302803     0.024108
C     -0.558807    -0.445671    -0.698556
C      0.713218    -0.748410     0.120569
C      1.562759     0.494415     0.376200
H     -1.334190     1.143622     0.638976
H     -2.262905    -0.353346     0.685208
H     -2.399108     0.688655    -0.714808
H     -0.270347     0.094205    -1.605806
H     -0.967748    -1.416105    -1.020909
H      0.419285    -1.217907     1.083723
H      1.299237    -1.487579    -0.417723
H      2.519345     0.259315     0.851434
H      1.017398     1.191674     1.017080
H      1.785085     1.025092    -0.562380
14
Iteration 25, Energy=-157.3065295800, |grad|=0.040421
C     -1.693594     0.291285     0.029373
C     -0.563242    -0.424275    -0.720503
C      0.690451    -0.727689     0.116627
C      1.582905     0.483744     0.371091
H     -1.362427     1.172193     0.569996
H     -2.167692    -0.382569     0.759005
H     -2.474774     0.590260    -0.685314
H     -0.265794     0.152832    -1.601736
H     -0.959464    -1.378827    -1.069564
H      0.375056    -1.159930     1.076809
H      1.281705    -1.498001    -0.399922
H      2.500497     0.214490     0.897395
H      1.035389     1.198159     0.992249
H      1.860243     0.999091    -0.558388
14
Iteration 26, Energy=-157.3067529546, |grad|=0.043192
C     -1.697836     0.281930     0.024122
C     -0.566461    -0.433650    -0.714381
C      0.686018    -0.726872     0.111597
C      1.572153     0.491829     0.373045
H     -1.357504     1.165758     0.561095
H     -2.156416    -0.376282     0.750432
H     -2.455600     0.602810    -0.669375
H     -0.273235     0.140310    -1.599576
H     -0.963259    -1.383461    -1.076923
H      0.383142    -1.153228     1.065969
H      1.279153    -1.495517    -0.395952
H      2.490119     0.213783     0.896976
H      1.045958     1.206038     1.000772
H      1.853026     0.997313    -0.550686
14
Iteration 27, Energy=-157.3070712527, |grad|=0.034818
C     -1.704232     0.275564     0.026557
C     -0.563372    -0.421121    -0.714953
C      0.684896    -0.725559     0.110327
C      1.579619     0.487419     0.374257
H     -1.375197     1.190786     0.539429
H     -2.132541    -0.389071     0.777455
H     -2.490623     0.564870    -0.664952
H     -0.270602     0.168593    -1.593296
H     -0.956120    -1.366340    -1.099064
H      0.372595    -1.147761     1.062990
H      1.269225    -1.505779    -0.388953
H      2.491846     0.204333     0.912075
H      1.052164     1.214151     0.986913
H      1.881599     0.980677    -0.551668
14
Iteration 28, Energy=-157.3072949338, |grad|=0.020146
C     -1.700794     0.281476     0.029539
C     -0.564111    -0.421522    -0.718572
C      0.688389    -0.723712     0.110091
C      1.579452     0.484088     0.376877
H     -1.378330     1.192666     0.535367
H     -2.130022    -0.391270     0.783216
H     -2.499517     0.556293    -0.665658
H     -0.270158     0.173849    -1.592403
H     -0.954167    -1.362631    -1.105001
H      0.371069    -1.150713     1.067893
H      1.267451    -1.506179    -0.389396
H      2.490736     0.201649     0.913266
H      1.052956     1.219893     0.985022
H      1.886304     0.976875    -0.553124
14
Iteration 29, Energy=-157.3074072898, |grad|=0.012822
C     -1.700000     0.279646     0.030024
C     -0.563480    -0.420488    -0.719841
C      0.686770    -0.724052     0.111802
C      1.579380     0.484571     0.377465
H     -1.379346     1.194516     0.532152
H     -2.126666    -0.390258     0.784918
H     -2.502122     0.552723    -0.663616
H     -0.270939     0.175528    -1.591069
H     -0.954342    -1.361962    -1.110045
H      0.372414    -1.151433     1.068361
H      1.266487    -1.505750    -0.389854
H      2.488403     0.199866     0.914221
H      1.054975     1.224370     0.985030
H      1.887720     0.973484    -0.552431
14
Iteration 30, Energy=-157.3076064575, |grad|=0.010961
C     -1.698006     0.273750     0.029125
C     -0.564087    -0.417592    -0.725552
C      0.680834    -0.722931     0.114268
C      1.577796     0.485716     0.380680
H     -1.383128     1.201226     0.515196
H     -2.106265    -0.388739     0.797900
H     -2.515120     0.532266    -0.651940
H     -0.273236     0.186047    -1.588487
H     -0.954562    -1.357038    -1.131577
H      0.372287    -1.149457     1.072128
H      1.261645    -1.502434    -0.389524
H      2.478140     0.188936     0.922138
H      1.064729     1.240384     0.983226
H      1.898230     0.960628    -0.550465
14
Iteration 31, Energy=-157.3076814252, |grad|=0.010844
C     -1.698694     0.271883     0.029347
C     -0.564605    -0.419289    -0.728817
C      0.677050    -0.722637     0.117398
C      1.576125     0.486100     0.382433
H     -1.382041     1.203514     0.508744
H     -2.098635    -0.384210     0.804029
H     -2.521052     0.521545    -0.646933
H     -0.273060     0.192897    -1.590746
H     -0.953951    -1.354247    -1.141169
H      0.372464    -1.154646     1.076654
H      1.261351    -1.497165    -0.391102
H      2.474149     0.184125     0.926817
H      1.069377     1.248839     0.981116
H      1.900778     0.954055    -0.550655
14
Iteration 32, Energy=-157.3077201952, |grad|=0.009706
C     -1.699527     0.272135     0.027367
C     -0.566767    -0.414741    -0.732486
C      0.673374    -0.721718     0.118042
C      1.575688     0.485329     0.384745
H     -1.380995     1.204950     0.497919
H     -2.086605    -0.383209     0.816527
H     -2.530042     0.506911    -0.640470
H     -0.272967     0.199552    -1.590890
H     -0.952828    -1.351564    -1.151922
H      0.368422    -1.155657     1.077790
H      1.261128    -1.491736    -0.390113
H      2.468977     0.178069     0.934286
H      1.074577     1.255002     0.976943
H      1.906822     0.947438    -0.550623
14
Iteration 33, Energy=-157.3077491576, |grad|=0.005511
C     -1.699635     0.272325     0.028021
C     -0.567508    -0.416288    -0.730964
C      0.674430    -0.721523     0.117515
C      1.574943     0.484865     0.384918
H     -1.378433     1.203086     0.500519
H     -2.090462    -0.380882     0.813592
H     -2.527141     0.511725    -0.642276
H     -0.272710     0.196370    -1.591084
H     -0.952520    -1.352666    -1.148512
H      0.369132    -1.159053     1.076414
H      1.263182    -1.490375    -0.390757
H      2.469822     0.180871     0.933036
H      1.073355     1.253698     0.977394
H      1.902802     0.948610    -0.550700
14
Iteration 34, Energy=-157.3077752953, |grad|=0.005290
C     -1.701178     0.272183     0.029013
C     -0.567801    -0.416281    -0.729990
C      0.674621    -0.721132     0.117077
C      1.575074     0.483743     0.385297
H     -1.376808     1.204214     0.498601
H     -2.089905    -0.378881     0.816171
H     -2.529867     0.510369    -0.642756
H     -0.272023     0.196866    -1.589953
H     -0.950710    -1.351158    -1.148163
H      0.367297    -1.163228     1.072824
H      1.265238    -1.488628    -0.390880
H      2.470282     0.182555     0.935311
H      1.072837     1.253815     0.975198
H      1.902200     0.946326    -0.550633
14
Iteration 35, Energy=-157.3077953919, |grad|=0.005362
C     -1.700425     0.273775     0.028748
C     -0.567539    -0.418252    -0.728115
C      0.674982    -0.722267     0.117433
C      1.573179     0.484167     0.386833
H     -1.372358     1.202420     0.499477
H     -2.094280    -0.374090     0.815380
H     -2.527150     0.515370    -0.643448
H     -0.272140     0.192989    -1.588976
H     -0.950045    -1.353249    -1.145290
H      0.368038    -1.171181     1.068958
H      1.269493    -1.484989    -0.393571
H      2.470122     0.186577     0.935218
H      1.070920     1.254454     0.975184
H      1.896459     0.945039    -0.550714
14
Iteration 36, Energy=-157.3078123007, |grad|=0.008514
C     -1.700442     0.273480     0.029058
C     -0.567911    -0.417582    -0.729054
C      0.676453    -0.723838     0.117008
C      1.571367     0.483381     0.388808
H     -1.369278     1.206368     0.493388
H     -2.091184    -0.368824     0.821998
H     -2.530203     0.512277    -0.640843
H     -0.271728     0.194193    -1.586195
H     -0.948709    -1.354006    -1.146593
H      0.365324    -1.180314     1.064527
H      1.273564    -1.480621    -0.397572
H      2.467937     0.188604     0.940198
H      1.067901     1.258475     0.973384
H      1.896166     0.939168    -0.550995
14
Iteration 37, Energy=-157.3078326355, |grad|=0.004092
C     -1.699009     0.274211     0.029400
C     -0.567208    -0.418404    -0.728417
C      0.675674    -0.724870     0.116944
C      1.570723     0.484395     0.389868
H     -1.369152     1.207999     0.491069
H     -2.090100    -0.367676     0.824055
H     -2.530563     0.512002    -0.639934
H     -0.271671     0.194949    -1.585858
H     -0.948909    -1.354963    -1.146575
H      0.365199    -1.182444     1.062802
H      1.274928    -1.480412    -0.399982
H      2.466812     0.189501     0.941585
H      1.066013     1.258894     0.973005
H      1.896521     0.937581    -0.550844
14
Iteration 38, Energy=-157.3078463435, |grad|=0.004640
C     -1.697930     0.274773     0.029723
C     -0.566596    -0.419035    -0.728578
C      0.675670    -0.725941     0.116229
C      1.569848     0.485019     0.390415
H     -1.369546     1.210265     0.488448
H     -2.087898    -0.366886     0.826202
H     -2.530167     0.511327    -0.638455
H     -0.271690     0.195822    -1.585699
H     -0.949586    -1.356006    -1.146135
H      0.365051    -1.183384     1.061655
H      1.275570    -1.480596    -0.402445
H      2.465360     0.190153     0.943341
H      1.063345     1.258590     0.972793
H      1.897825     0.936662    -0.550378
14
Iteration 39, Energy=-157.3078674088, |grad|=0.006240
C     -1.695453     0.275703     0.030723
C     -0.566341    -0.419890    -0.729202
C      0.675960    -0.727295     0.114561
C      1.567933     0.484834     0.391477
H     -1.369549     1.214625     0.482622
H     -2.082298    -0.364326     0.831161
H     -2.530276     0.508821    -0.635520
H     -0.271845     0.197155    -1.585711
H     -0.950726    -1.357185    -1.145786
H      0.365005    -1.186092     1.059366
H      1.276740    -1.479973    -0.406980
H      2.461573     0.191399     0.947704
H      1.058146     1.258150     0.971626
H      1.900386     0.934836    -0.548926
14
Iteration 40, Energy=-157.3079037825, |grad|=0.011503
C     -1.691761     0.277684     0.032316
C     -0.565359    -0.421050    -0.730050
C      0.676648    -0.731301     0.109947
C      1.562882     0.484899     0.393193
H     -1.366982     1.224974     0.471148
H     -2.069231    -0.356353     0.841653
H     -2.528618     0.503661    -0.629251
H     -0.272625     0.197180    -1.587071
H     -0.953922    -1.359496    -1.142847
H      0.366751    -1.193520     1.053101
H      1.279614    -1.477921    -0.417481
H      2.452728     0.195138     0.958869
H      1.044357     1.254102     0.967632
H      1.904774     0.932767    -0.544043
14
Iteration 41, Energy=-157.3079571649, |grad|=0.009114
C     -1.685940     0.281348     0.034786
C     -0.565828    -0.422404    -0.731956
C      0.677747    -0.733944     0.105479
C      1.558145     0.482344     0.395467
H     -1.363130     1.234684     0.457767
H     -2.053835    -0.346583     0.854524
H     -2.529664     0.495984    -0.623013
H     -0.273795     0.196478    -1.589077
H     -0.956996    -1.360139    -1.141112
H      0.369145    -1.203049     1.046372
H      1.282702    -1.474618    -0.428314
H      2.441786     0.198552     0.972059
H      1.029568     1.251501     0.962832
H      1.909354     0.930609    -0.538694
14
Iteration 42, Energy=-157.3080318869, |grad|=0.007605
C     -1.677463     0.286313     0.037659
C     -0.566648    -0.423452    -0.732705
C      0.680188    -0.737994     0.098005
C      1.550594     0.479388     0.399194
H     -1.354100     1.247399     0.441695
H     -2.032623    -0.329392     0.870606
H     -2.530318     0.486836    -0.615476
H     -0.276302     0.190434    -1.594167
H     -0.962785    -1.360927    -1.137110
H      0.375784    -1.218622     1.035834
H      1.287195    -1.469596    -0.443509
H      2.425737     0.203985     0.991431
H      1.006909     1.245726     0.955364
H      1.913087     0.930665    -0.529705
14
Iteration 43, Energy=-157.3080710002, |grad|=0.013902
C     -1.670665     0.294198     0.038960
C     -0.567116    -0.427607    -0.735614
C      0.683586    -0.742236     0.091519
C      1.543215     0.477305     0.402579
H     -1.340614     1.259733     0.427211
H     -2.010466    -0.308014     0.886322
H     -2.529569     0.478458    -0.606936
H     -0.280327     0.178028    -1.601685
H     -0.970813    -1.360202    -1.131316
H      0.387129    -1.237050     1.022840
H      1.292692    -1.465533    -0.460674
H      2.407651     0.209369     1.012911
H      0.980362     1.240290     0.948940
H      1.914191     0.934025    -0.517940
14
Iteration 44, Energy=-157.3081069810, |grad|=0.005194
C     -1.669257     0.294822     0.038634
C     -0.567206    -0.426795    -0.733845
C      0.684704    -0.743134     0.089168
C      1.541827     0.478394     0.404358
H     -1.338083     1.259597     0.427635
H     -2.009981    -0.305365     0.886230
H     -2.530307     0.479454    -0.607286
H     -0.280848     0.174287    -1.603699
H     -0.972664    -1.361068    -1.130541
H      0.389476    -1.239218     1.021550
H      1.293115    -1.465475    -0.461113
H      2.406712     0.209805     1.014355
H      0.978690     1.239055     0.948592
H      1.913076     0.936403    -0.516920
14
Iteration 45, Energy=-157.3081169879, |grad|=0.003687
C     -1.669580     0.294694     0.037952
C     -0.567112    -0.426803    -0.733481
C      0.684727    -0.743134     0.089309
C      1.542177     0.479403     0.404617
H     -1.337518     1.258879     0.429001
H     -2.011507    -0.305533     0.885068
H     -2.530938     0.480766    -0.607677
H     -0.280908     0.172782    -1.604447
H     -0.973406    -1.361539    -1.130595
H      0.390239    -1.238941     1.021384
H      1.293379    -1.466464    -0.460415
H      2.407664     0.209344     1.013549
H      0.979690     1.239625     0.949721
H      1.912350     0.937683    -0.516869
14
Iteration 46, Energy=-157.3081294019, |grad|=0.003741
C     -1.669690     0.295549     0.036940
C     -0.567256    -0.427915    -0.733874
C      0.685195    -0.743422     0.088570
C      1.542114     0.480975     0.405486
H     -1.335729     1.258849     0.429491
H     -2.012182    -0.304514     0.884755
H     -2.532331     0.482335    -0.607137
H     -0.281234     0.169308    -1.606768
H     -0.975616    -1.362519    -1.130215
H      0.392260    -1.239762     1.020319
H      1.294327    -1.467896    -0.460534
H      2.407945     0.208770     1.013950
H      0.979646     1.240449     0.951783
H      1.911807     0.940554    -0.515650
14
Iteration 47, Energy=-157.3081406316, |grad|=0.004569
C     -1.668968     0.296361     0.037017
C     -0.567908    -0.429169    -0.735320
C      0.685502    -0.744065     0.087250
C      1.541503     0.481630     0.406494
H     -1.333514     1.260642     0.426820
H     -2.010330    -0.301869     0.886196
H     -2.533859     0.483213    -0.605025
H     -0.281739     0.165527    -1.609839
H     -0.978618    -1.364678    -1.129223
H      0.394200    -1.241966     1.018100
H      1.296225    -1.468095    -0.462442
H      2.406396     0.208988     1.016001
H      0.977940     1.240663     0.953973
H      1.912426     0.943580    -0.512887
14
Iteration 48, Energy=-157.3081537839, |grad|=0.004306
C     -1.667950     0.298459     0.035769
C     -0.569911    -0.432484    -0.737468
C      0.686499    -0.744504     0.084132
C      1.539636     0.482453     0.408413
H     -1.329654     1.263273     0.421689
H     -2.007201    -0.297617     0.889100
H     -2.536005     0.484798    -0.600771
H     -0.282876     0.158776    -1.615613
H     -0.983325    -1.368026    -1.126917
H      0.396905    -1.245881     1.014544
H      1.299405    -1.467106    -0.465270
H      2.404030     0.209307     1.019279
H      0.976166     1.240079     0.957888
H      1.913537     0.949235    -0.507658
14
Iteration 49, Energy=-157.3081639487, |grad|=0.003497
C     -1.666501     0.299419     0.036396
C     -0.570309    -0.433751    -0.739267
C      0.686263    -0.745023     0.082447
C      1.538440     0.482210     0.409533
H     -1.327820     1.265444     0.416574
H     -2.003418    -0.294345     0.891588
H     -2.536893     0.484778    -0.598152
H     -0.284325     0.155393    -1.617839
H     -0.985327    -1.370246    -1.125003
H      0.397479    -1.248286     1.011895
H      1.301216    -1.464658    -0.468075
H      2.401542     0.209831     1.021675
H      0.974157     1.238564     0.959592
H      1.914753     0.951433    -0.504247
14
Iteration 50, Energy=-157.3081738094, |grad|=0.003345
C     -1.664954     0.299769     0.036349
C     -0.571109    -0.434978    -0.739922
C      0.686164    -0.744927     0.080862
C      1.537156     0.481340     0.410415
H     -1.325950     1.267919     0.411116
H     -1.999066    -0.290942     0.894150
H     -2.537094     0.484470    -0.595661
H     -0.286236     0.152437    -1.620042
H     -0.986579    -1.372485    -1.122588
H      0.397233    -1.250498     1.009204
H      1.302894    -1.461177    -0.471256
H      2.399076     0.210121     1.023838
H      0.971933     1.236493     0.961486
H      1.915792     0.953221    -0.500834
14
Iteration 51, Energy=-157.3081856685, |grad|=0.004063
C     -1.663059     0.301264     0.035847
C     -0.572233    -0.436644    -0.740706
C      0.686530    -0.744502     0.079005
C      1.535212     0.481587     0.412484
H     -1.322715     1.270284     0.404441
H     -1.993564    -0.286156     0.897005
H     -2.537291     0.484159    -0.593460
H     -0.289820     0.147244    -1.623345
H     -0.987775    -1.375705    -1.118543
H      0.396994    -1.253066     1.005477
H      1.304911    -1.456456    -0.475716
H      2.396786     0.209056     1.026099
H      0.969290     1.233432     0.965120
H      1.915991     0.956264    -0.496592
14
Iteration 52, Energy=-157.3081999925, |grad|=0.005323
C     -1.660639     0.303474     0.033887
C     -0.573278    -0.439750    -0.741332
C      0.686553    -0.743159     0.074671
C      1.533495     0.482047     0.416489
H     -1.316105     1.274759     0.394123
H     -1.984924    -0.277839     0.901491
H     -2.537892     0.483823    -0.590715
H     -0.296582     0.137487    -1.630201
H     -0.989869    -1.381961    -1.110933
H      0.397011    -1.257204     0.999537
H      1.308255    -1.448830    -0.483165
H      2.393592     0.205950     1.028838
H      0.964822     1.229505     0.973771
H      1.914818     0.962461    -0.489345
14
Iteration 53, Energy=-157.3082120390, |grad|=0.003562
C     -1.659131     0.304627     0.032512
C     -0.574722    -0.441199    -0.741870
C      0.687162    -0.742056     0.073826
C      1.531816     0.483355     0.418758
H     -1.312225     1.276620     0.389688
H     -1.981607    -0.273580     0.902959
H     -2.538598     0.483858    -0.590953
H     -0.300765     0.131692    -1.634730
H     -0.990384    -1.385809    -1.106010
H      0.397342    -1.258256     0.996050
H      1.309743    -1.445370    -0.486858
H      2.393984     0.202430     1.029107
H      0.964018     1.227736     0.980418
H      1.912623     0.966714    -0.485778
14
Iteration 54, Energy=-157.3082192453, |grad|=0.002688
C     -1.659504     0.305447     0.031852
C     -0.574671    -0.441252    -0.742067
C      0.687213    -0.741468     0.073764
C      1.532002     0.484203     0.419995
H     -1.311191     1.276470     0.389831
H     -1.982129    -0.272767     0.902582
H     -2.538480     0.483604    -0.592420
H     -0.302039     0.130178    -1.636206
H     -0.989980    -1.386989    -1.104311
H      0.397902    -1.257813     0.995641
H      1.309583    -1.445366    -0.487190
H      2.395171     0.200395     1.027615
H      0.965030     1.227817     0.983482
H      1.910350     0.968302    -0.485451
14
Iteration 55, Energy=-157.3082258894, |grad|=0.002619
C     -1.659683     0.306115     0.031327
C     -0.574577    -0.441357    -0.742404
C      0.687168    -0.740674     0.073427
C      1.532265     0.484722     0.420624
H     -1.310546     1.276710     0.389940
H     -1.983331    -0.271575     0.902084
H     -2.538104     0.482930    -0.594615
H     -0.303096     0.128879    -1.637918
H     -0.989344    -1.388100    -1.102089
H      0.398862    -1.257598     0.995602
H      1.309127    -1.445622    -0.487185
H      2.396847     0.198199     1.025313
H      0.966933     1.227818     0.987664
H      1.906735     0.970315    -0.484652
14
Iteration 56, Energy=-157.3082310135, |grad|=0.004422
C     -1.659535     0.306992     0.030273
C     -0.574628    -0.441407    -0.742928
C      0.686980    -0.740536     0.073112
C      1.531699     0.484279     0.422801
H     -1.309854     1.278599     0.387758
H     -1.983760    -0.268667     0.902671
H     -2.537042     0.481549    -0.596387
H     -0.304399     0.126632    -1.640586
H     -0.989396    -1.390298    -1.098695
H      0.400605    -1.258277     0.994443
H      1.309097    -1.445185    -0.488165
H      2.397924     0.196197     1.022402
H      0.969219     1.226442     0.993699
H      1.902346     0.974444    -0.483281
14
Iteration 57, Energy=-157.3082375097, |grad|=0.002867
C     -1.659092     0.307552     0.030279
C     -0.574604    -0.441804    -0.742887
C      0.686948    -0.740541     0.072762
C      1.531405     0.484074     0.422631
H     -1.310218     1.279573     0.385894
H     -1.983468    -0.267132     0.903104
H     -2.536435     0.480732    -0.596981
H     -0.304704     0.125991    -1.641130
H     -0.989390    -1.390797    -1.097342
H      0.400977    -1.259110     0.994184
H      1.309119    -1.444558    -0.488758
H      2.398377     0.195784     1.021372
H      0.969907     1.225163     0.996138
H      1.900435     0.975836    -0.482148
14
Iteration 58, Energy=-157.3082484226, |grad|=0.003454
C     -1.657747     0.308749     0.029848
C     -0.574823    -0.442923    -0.742735
C      0.687198    -0.740869     0.071734
C      1.530245     0.483533     0.423130
H     -1.310895     1.283094     0.379816
H     -1.981935    -0.262269     0.904719
H     -2.535210     0.478802    -0.597956
H     -0.305563     0.123191    -1.642554
H     -0.990246    -1.392474    -1.093734
H      0.402124    -1.261979     0.992959
H      1.309775    -1.442643    -0.490967
H      2.399389     0.194938     1.018816
H      0.971191     1.221037     1.003092
H      1.895753     0.980575    -0.479050
14
Iteration 59, Energy=-157.3082609270, |grad|=0.004798
C     -1.656520     0.310510     0.028706
C     -0.574946    -0.444387    -0.742040
C      0.687563    -0.741391     0.071307
C      1.529435     0.483026     0.424292
H     -1.311877     1.287513     0.372261
H     -1.980306    -0.256134     0.906465
H     -2.534123     0.476549    -0.599745
H     -0.306505     0.119154    -1.643704
H     -0.991571    -1.394375    -1.089507
H      0.403729    -1.265317     0.991276
H      1.310845    -1.440721    -0.493770
H      2.401712     0.193541     1.014591
H      0.972559     1.215639     1.012769
H      1.889261     0.987155    -0.475783
14
Iteration 60, Energy=-157.3082825229, |grad|=0.010779
C     -1.655075     0.315462     0.024196
C     -0.575070    -0.447957    -0.738216
C      0.690770    -0.743465     0.069441
C      1.526922     0.482665     0.429174
H     -1.316153     1.301451     0.350672
H     -1.978149    -0.237314     0.909882
H     -2.531627     0.469353    -0.608494
H     -0.307462     0.107154    -1.645470
H     -0.995627    -1.399408    -1.077440
H      0.409416    -1.275105     0.988817
H      1.312963    -1.436629    -0.500055
H      2.414191     0.187992     0.997075
H      0.978851     1.197858     1.045265
H      1.865307     1.008705    -0.467730
14
Iteration 61, Energy=-157.3083094443, |grad|=0.005411
C     -1.654294     0.318958     0.021626
C     -0.575156    -0.450255    -0.736857
C      0.690976    -0.744341     0.070685
C      1.527202     0.482125     0.432034
H     -1.317515     1.307926     0.338969
H     -1.975641    -0.227950     0.912489
H     -2.531703     0.466290    -0.611591
H     -0.307970     0.100474    -1.645689
H     -0.998228    -1.401722    -1.072163
H      0.412307    -1.279766     0.986152
H      1.315590    -1.434461    -0.504568
H      2.419430     0.186254     0.988912
H      0.979488     1.188572     1.060233
H      1.854771     1.018659    -0.463114
14
Iteration 62, Energy=-157.3083240471, |grad|=0.003893
C     -1.655424     0.320145     0.020290
C     -0.575071    -0.450450    -0.735825
C      0.691481    -0.745074     0.071876
C      1.527943     0.482255     0.433480
H     -1.318223     1.309239     0.336519
H     -1.975763    -0.225804     0.912638
H     -2.533100     0.465629    -0.612970
H     -0.306542     0.099265    -1.644264
H     -0.999176    -1.401445    -1.072275
H      0.413572    -1.280510     0.986363
H      1.316346    -1.434858    -0.504846
H      2.422950     0.186312     0.984881
H      0.979229     1.185326     1.063835
H      1.851035     1.020734    -0.462583
14
Iteration 63, Energy=-157.3083360897, |grad|=0.003761
C     -1.656731     0.322147     0.017971
C     -0.575205    -0.451133    -0.734626
C      0.692563    -0.745663     0.072672
C      1.527912     0.481491     0.436201
H     -1.318227     1.312538     0.330747
H     -1.975339    -0.220167     0.913322
H     -2.535513     0.463990    -0.615537
H     -0.305008     0.096000    -1.644026
H     -1.000597    -1.402333    -1.070459
H      0.416341    -1.282571     0.986449
H      1.317609    -1.434401    -0.505997
H      2.429422     0.185430     0.977723
H      0.979051     1.179508     1.073072
H      1.842978     1.025926    -0.460394
14
Iteration 64, Energy=-157.3083425887, |grad|=0.004956
C     -1.657317     0.323173     0.016521
C     -0.575339    -0.451236    -0.734982
C      0.692473    -0.747438     0.072617
C      1.527558     0.481546     0.437861
H     -1.317417     1.314297     0.326808
H     -1.974444    -0.216398     0.914362
H     -2.537843     0.463020    -0.615061
H     -0.303068     0.095043    -1.644235
H     -1.001111    -1.402544    -1.070165
H      0.418593    -1.284090     0.986951
H      1.318239    -1.433618    -0.506184
H      2.432278     0.186474     0.974072
H      0.978189     1.175344     1.076575
H      1.838465     1.027188    -0.458024
14
Iteration 65, Energy=-157.3083486838, |grad|=0.002396
C     -1.656900     0.324281     0.015827
C     -0.575504    -0.451893    -0.735076
C      0.692752    -0.747304     0.072420
C      1.526460     0.480637     0.438769
H     -1.316908     1.316024     0.322889
H     -1.973323    -0.212841     0.915296
H     -2.538506     0.461962    -0.615042
H     -0.302737     0.093500    -1.645346
H     -1.001480    -1.403458    -1.068723
H      0.419939    -1.285858     0.986728
H      1.318827    -1.432833    -0.507287
H      2.433846     0.186368     0.971823
H      0.978098     1.172484     1.081042
H      1.834693     1.029695    -0.456203
14
Iteration 66, Energy=-157.3083528680, |grad|=0.001920
C     -1.655924     0.325463     0.015073
C     -0.575593    -0.452649    -0.735443
C      0.692872    -0.747644     0.072074
C      1.525065     0.479705     0.439610
H     -1.315985     1.318522     0.317241
H     -1.971249    -0.207804     0.916755
H     -2.539122     0.460548    -0.614341
H     -0.302529     0.091378    -1.646970
H     -1.001852    -1.404817    -1.066832
H      0.421607    -1.288422     0.986060
H      1.319524    -1.431516    -0.508915
H      2.434905     0.186428     0.969480
H      0.977803     1.168711     1.086809
H      1.829736     1.032859    -0.453484
14
Iteration 67, Energy=-157.3083553977, |grad|=0.002373
C     -1.655115     0.326339     0.014512
C     -0.575565    -0.453321    -0.735664
C      0.692916    -0.748015     0.071865
C      1.524126     0.479439     0.440342
H     -1.315090     1.319887     0.313633
H     -1.969519    -0.204684     0.917822
H     -2.539587     0.459786    -0.613423
H     -0.302393     0.090081    -1.647848
H     -1.001866    -1.405478    -1.066088
H      0.422460    -1.290034     0.985527
H      1.319891    -1.430845    -0.509897
H      2.435097     0.186579     0.968360
H      0.977382     1.166375     1.090033
H      1.826520     1.034654    -0.452055
14
Iteration 68, Energy=-157.3083615671, |grad|=0.003208
C     -1.652675     0.328291     0.012820
C     -0.575219    -0.454697    -0.736396
C      0.693058    -0.749299     0.071443
C      1.521210     0.478860     0.442530
H     -1.311613     1.324458     0.302684
H     -1.963388    -0.195123     0.921219
H     -2.540846     0.457637    -0.610425
H     -0.302210     0.085742    -1.650021
H     -1.001889    -1.407839    -1.064432
H      0.424598    -1.294870     0.983485
H      1.321045    -1.429143    -0.512940
H      2.435234     0.186864     0.965384
H      0.975626     1.159648     1.099854
H      1.816327     1.040234    -0.448087
14
Iteration 69, Energy=-157.3083668553, |grad|=0.003979
C     -1.649965     0.331007     0.011389
C     -0.575320    -0.457233    -0.736684
C      0.693298    -0.750947     0.070466
C      1.518503     0.478891     0.445169
H     -1.307360     1.328291     0.292605
H     -1.956142    -0.186815     0.925225
H     -2.542007     0.455853    -0.607474
H     -0.301941     0.081922    -1.651950
H     -1.001582    -1.409615    -1.063848
H      0.425587    -1.299186     0.981118
H      1.322082    -1.427942    -0.515467
H      2.434679     0.187038     0.963299
H      0.972854     1.154172     1.108305
H      1.806570     1.045327    -0.445037
14
Iteration 70, Energy=-157.3083714543, |grad|=0.002417
C     -1.649333     0.330774     0.011825
C     -0.575100    -0.457133    -0.737436
C      0.692995    -0.751025     0.070283
C      1.517346     0.479329     0.445402
H     -1.305073     1.327868     0.292551
H     -1.953448    -0.186890     0.926187
H     -2.542121     0.456287    -0.605605
H     -0.301983     0.082094    -1.651880
H     -1.001181    -1.409804    -1.065557
H      0.424504    -1.299202     0.980478
H      1.322206    -1.428483    -0.515390
H      2.432766     0.187532     0.965334
H      0.971047     1.155128     1.106327
H      1.806633     1.044289    -0.445402
14
Iteration 71, Energy=-157.3083756377, |grad|=0.001800
C     -1.648312     0.330618     0.012053
C     -0.575167    -0.457336    -0.738018
C      0.692765    -0.751463     0.069752
C      1.516128     0.479640     0.445864
H     -1.302180     1.328308     0.291500
H     -1.949367    -0.186256     0.928021
H     -2.541894     0.456463    -0.604084
H     -0.302095     0.081630    -1.651876
H     -1.001385    -1.410362    -1.067051
H      0.422952    -1.299653     0.979280
H      1.322735    -1.428813    -0.515525
H      2.431055     0.187821     0.966914
H      0.968279     1.155820     1.105567
H      1.805740     1.044345    -0.445279
14
Iteration 72, Energy=-157.3083780477, |grad|=0.001792
C     -1.647327     0.330750     0.012565
C     -0.575212    -0.457800    -0.738631
C      0.692542    -0.751907     0.069267
C      1.514996     0.479755     0.446220
H     -1.300437     1.328618     0.290515
H     -1.946322    -0.185563     0.929381
H     -2.541410     0.456299    -0.603234
H     -0.302055     0.081450    -1.652155
H     -1.002009    -1.410620    -1.067689
H      0.421807    -1.300155     0.978438
H      1.323241    -1.428883    -0.515538
H      2.430006     0.188160     0.967685
H      0.966256     1.155957     1.105083
H      1.805180     1.044701    -0.444791
14
Iteration 73, Energy=-157.3083797153, |grad|=0.003626
C     -1.644485     0.331588     0.012145
C     -0.575219    -0.458825    -0.739823
C      0.691905    -0.752861     0.068065
C      1.512165     0.479422     0.447121
H     -1.296361     1.330171     0.286498
H     -1.938719    -0.182337     0.933434
H     -2.539851     0.454981    -0.600521
H     -0.301631     0.080645    -1.653705
H     -1.004387    -1.411338    -1.068326
H      0.419728    -1.302363     0.976507
H      1.325003    -1.428853    -0.515888
H      2.427714     0.189500     0.968085
H      0.961162     1.154490     1.105706
H      1.802231     1.046541    -0.442183
14
Iteration 74, Energy=-157.3083823783, |grad|=0.001073
C     -1.643811     0.331847     0.012602
C     -0.575223    -0.459173    -0.740225
C      0.692165    -0.753436     0.068018
C      1.511738     0.479232     0.447475
H     -1.296331     1.330910     0.284854
H     -1.937912    -0.180635     0.933455
H     -2.540066     0.454364    -0.600587
H     -0.301483     0.080013    -1.654128
H     -1.004908    -1.411243    -1.067584
H      0.420123    -1.303074     0.976242
H      1.325218    -1.428473    -0.516091
H      2.428105     0.189642     0.967138
H      0.960838     1.153084     1.107363
H      1.800803     1.047705    -0.441414
14
Iteration 75, Energy=-157.3083829157, |grad|=0.000827
C     -1.643730     0.332171     0.012350
C     -0.575061    -0.459263    -0.740158
C      0.692267    -0.753550     0.068039
C      1.511617     0.479107     0.447599
H     -1.296607     1.331373     0.283916
H     -1.937993    -0.179689     0.933380
H     -2.540150     0.453941    -0.600607
H     -0.301419     0.079590    -1.654421
H     -1.005156    -1.411219    -1.066988
H      0.420643    -1.303499     0.976252
H      1.325348    -1.428310    -0.516310
H      2.428603     0.189654     0.966391
H      0.961039     1.152039     1.108642
H      1.799855     1.048419    -0.440968
14
Iteration 76, Energy=-157.3083836607, |grad|=0.000773
C     -1.642983     0.332848     0.011930
C     -0.574830    -0.459392    -0.740222
C      0.692506    -0.753906     0.067876
C      1.511153     0.478972     0.447961
H     -1.296454     1.332461     0.282001
H     -1.936831    -0.177821     0.933701
H     -2.540052     0.452974    -0.600246
H     -0.301335     0.078599    -1.655071
H     -1.006084    -1.411046    -1.066119
H      0.421085    -1.304384     0.975879
H      1.325933    -1.428332    -0.516657
H      2.428892     0.189916     0.965403
H      0.960397     1.150020     1.110703
H      1.797861     1.049854    -0.440022
14
Iteration 77, Energy=-157.3083839931, |grad|=0.000928
C     -1.642687     0.333288     0.011744
C     -0.574570    -0.459560    -0.740234
C      0.692753    -0.754262     0.067547
C      1.510685     0.478933     0.448193
H     -1.296183     1.333366     0.280936
H     -1.935738    -0.176810     0.933969
H     -2.539887     0.452398    -0.599970
H     -0.301316     0.077912    -1.655526
H     -1.006730    -1.410891    -1.065650
H      0.421232    -1.304818     0.975512
H      1.326288    -1.428449    -0.516805
H      2.429034     0.190087     0.965131
H      0.959752     1.148809     1.111816
H      1.796624     1.050758    -0.439549
14
Iteration 78, Energy=-157.3083842819, |grad|=0.000433
C     -1.642209     0.333672     0.011655
C     -0.574460    -0.459511    -0.740298
C      0.692871    -0.754421     0.067429
C      1.510517     0.478898     0.448339
H     -1.295996     1.333920     0.280338
H     -1.934872    -0.176270     0.934189
H     -2.539814     0.452001    -0.599807
H     -0.301323     0.077395    -1.655791
H     -1.007263    -1.410748    -1.065398
H      0.421261    -1.305033     0.975193
H      1.326652    -1.428747    -0.516924
H      2.428959     0.190274     0.965045
H      0.959117     1.148019     1.112416
H      1.795818     1.051313    -0.439268
14
Iteration 79, Energy=-157.3083843788, |grad|=0.000263
C     -1.642117     0.333731     0.011688
C     -0.574518    -0.459411    -0.740319
C      0.692986    -0.754427     0.067318
C      1.510569     0.478902     0.448342
H     -1.296025     1.334078     0.280497
H     -1.934650    -0.176415     0.934187
H     -2.539775     0.451999    -0.599831
H     -0.301316     0.077294    -1.655852
H     -1.007376    -1.410671    -1.065375
H      0.421228    -1.304933     0.975152
H      1.326703    -1.428974    -0.516901
H      2.428878     0.190365     0.965227
H      0.958906     1.147922     1.112275
H      1.795766     1.051302    -0.439292
