14
molecule_CCCC_best_hybrid
C     -1.646425     0.329862     0.010926
C     -0.573186    -0.458179    -0.738757
C      0.691187    -0.751917     0.074412
C      1.515501     0.480808     0.442587
H     -1.302029     1.327447     0.291959
H     -1.946842    -0.188633     0.926184
H     -2.539088     0.454589    -0.606681
H     -0.297075     0.081047    -1.651998
H     -1.002153    -1.409868    -1.067569
H      0.414363    -1.290306     0.987892
H      1.322045    -1.436775    -0.500881
H      2.425110     0.194166     0.975708
H      0.962388     1.167195     1.087317
H      1.816059     1.033796    -0.452191