14
molecule_CCCC_best_lbfgs
C     -1.642113     0.333735     0.011683
C     -0.574521    -0.459417    -0.740319
C      0.692988    -0.754428     0.067315
C      1.510564     0.478902     0.448350
H     -1.296020     1.334091     0.280468
H     -1.934639    -0.176387     0.934195
H     -2.539774     0.451991    -0.599832
H     -0.301321     0.077278    -1.655859
H     -1.007382    -1.410680    -1.065359
H      0.421234    -1.304947     0.975144
H      1.326708    -1.428962    -0.516913
H      2.428882     0.190360     0.965214
H      0.958907     1.147904     1.112305
H      1.795746     1.051322    -0.439274