9
Iteration -1, Energy=-154.0855821065, |grad|=0.023006
C     -0.983669     0.057162     0.024265
C      0.488936    -0.324526    -0.179249
O      1.335264     0.308956     0.754771
H     -1.357455     0.737536    -0.739569
H     -1.614988    -0.830446     0.034757
H     -1.074031     0.541727     0.990975
H      0.795977    -0.125698    -1.207588
H      0.613361    -1.390190    -0.026654
H      1.796605     1.025478     0.348292
9
Iteration 1, Energy=-154.0856645606, |grad|=0.026335
C     -0.976602     0.054612     0.024947
C      0.485653    -0.322588    -0.175119
O      1.336514     0.309912     0.748679
H     -1.357794     0.740081    -0.741109
H     -1.618245    -0.831236     0.031960
H     -1.076705     0.543596     0.996033
H      0.799471    -0.123285    -1.208539
H      0.613781    -1.397023    -0.024695
H      1.793927     1.025933     0.347844
9
Iteration 2, Energy=-154.0857635419, |grad|=0.011855
C     -0.979006     0.055867     0.025744
C      0.487756    -0.324834    -0.176800
O      1.336241     0.308881     0.749402
H     -1.356972     0.739677    -0.740277
H     -1.618134    -0.830654     0.031257
H     -1.077114     0.543192     0.995889
H      0.799547    -0.123165    -1.207366
H      0.613625    -1.396586    -0.024379
H      1.794057     1.027623     0.346532
9
Iteration 3, Energy=-154.0858310658, |grad|=0.009003
C     -0.980333     0.056702     0.027134
C      0.489355    -0.327803    -0.177789
O      1.337461     0.308555     0.748055
H     -1.355462     0.740000    -0.739190
H     -1.619144    -0.829620     0.028852
H     -1.078872     0.543015     0.997500
H      0.801078    -0.122222    -1.205885
H      0.613559    -1.398454    -0.023127
H      1.792358     1.029828     0.344450
9
Iteration 4, Energy=-154.0859272463, |grad|=0.013268
C     -0.981060     0.057269     0.029949
C      0.491078    -0.332358    -0.177759
O      1.340951     0.307299     0.744408
H     -1.351703     0.741607    -0.736695
H     -1.622142    -0.826999     0.022756
H     -1.083254     0.542302     1.001669
H      0.805021    -0.120473    -1.203322
H      0.613686    -1.403858    -0.020017
H      1.787423     1.035210     0.339011
9
Iteration 5, Energy=-154.0860386991, |grad|=0.019901
C     -0.981243     0.057879     0.033423
C      0.492732    -0.338127    -0.176083
O      1.350237     0.307414     0.739351
H     -1.344254     0.745311    -0.731519
H     -1.626998    -0.822250     0.012955
H     -1.089572     0.538512     1.006263
H      0.809349    -0.121022    -1.199336
H      0.613959    -1.409038    -0.015797
H      1.775790     1.041321     0.330742
9
Iteration 6, Energy=-154.0861987125, |grad|=0.017189
C     -0.978636     0.057129     0.037595
C      0.494648    -0.342873    -0.171002
O      1.361764     0.303141     0.732745
H     -1.332805     0.752722    -0.724185
H     -1.634587    -0.815367    -0.001820
H     -1.098729     0.532016     1.013571
H      0.814750    -0.123797    -1.194113
H      0.614711    -1.416583    -0.009255
H      1.758883     1.053611     0.316465
9
Iteration 7, Energy=-154.0864136462, |grad|=0.015257
C     -0.974469     0.055945     0.040129
C      0.497129    -0.346016    -0.163800
O      1.375982     0.300034     0.725165
H     -1.318104     0.764688    -0.715496
H     -1.641531    -0.807794    -0.018089
H     -1.106925     0.520915     1.020377
H      0.816048    -0.133190    -1.188979
H      0.615746    -1.420029    -0.002007
H      1.736124     1.065448     0.302700
9
Iteration 8, Energy=-154.0868148669, |grad|=0.028409
C     -0.964974     0.058441     0.043806
C      0.498008    -0.352909    -0.152110
O      1.401341     0.295890     0.710527
H     -1.285394     0.794594    -0.696761
H     -1.649922    -0.794428    -0.051500
H     -1.118531     0.492434     1.032997
H      0.811491    -0.161521    -1.184123
H      0.618834    -1.424680     0.016403
H      1.689146     1.092179     0.280762
9
Iteration 9, Energy=-154.0873803602, |grad|=0.044790
C     -0.956226     0.057732     0.043425
C      0.503038    -0.358499    -0.138671
O      1.424753     0.296474     0.686712
H     -1.243016     0.838752    -0.672682
H     -1.650998    -0.775436    -0.092781
H     -1.126759     0.452892     1.050204
H      0.796867    -0.207507    -1.183639
H      0.622152    -1.427204     0.043469
H      1.630190     1.122797     0.263961
9
Iteration 10, Energy=-154.0883721471, |grad|=0.047570
C     -0.941548     0.066742     0.043317
C      0.504144    -0.367590    -0.132720
O      1.437757     0.306551     0.658650
H     -1.198386     0.888510    -0.644247
H     -1.645508    -0.759896    -0.137369
H     -1.127374     0.405862     1.065468
H      0.773120    -0.266380    -1.191198
H      0.625330    -1.427434     0.078646
H      1.572466     1.153634     0.259453
9
Iteration 1, Energy=-154.0885484017, |grad|=0.064865
C     -0.941578     0.066712     0.042791
C      0.503730    -0.367215    -0.132831
O      1.431801     0.306977     0.650609
H     -1.178372     0.888387    -0.629803
H     -1.645457    -0.756328    -0.160277
H     -1.127056     0.390340     1.071345
H      0.772905    -0.266576    -1.191249
H      0.625301    -1.426480     0.092312
H      1.549883     1.170338     0.259610
9
Iteration 2, Energy=-154.0883676513, |grad|=0.046603
C     -0.944917     0.064431     0.041816
C      0.504013    -0.363345    -0.134770
O      1.436143     0.305879     0.660382
H     -1.201027     0.878462    -0.645700
H     -1.644342    -0.760830    -0.135666
H     -1.124868     0.410004     1.065092
H      0.776343    -0.256453    -1.191300
H      0.624314    -1.427117     0.076024
H      1.575813     1.152301     0.263998
9
Iteration -1, Energy=-154.0883676513, |grad|=0.046603
C     -0.944917     0.064431     0.041816
C      0.504013    -0.363345    -0.134770
O      1.436143     0.305879     0.660382
H     -1.201027     0.878462    -0.645700
H     -1.644342    -0.760830    -0.135666
H     -1.124868     0.410004     1.065092
H      0.776343    -0.256453    -1.191300
H      0.624314    -1.427117     0.076024
H      1.575813     1.152301     0.263998
9
Iteration 1, Energy=-154.0888203291, |grad|=0.029008
C     -0.948910     0.068516     0.046494
C      0.506525    -0.375231    -0.144106
O      1.433357     0.311158     0.659562
H     -1.201813     0.878280    -0.643255
H     -1.641311    -0.759734    -0.138333
H     -1.123381     0.409537     1.064088
H      0.776342    -0.257036    -1.191995
H      0.622948    -1.426408     0.079869
H      1.577715     1.154250     0.267552
9
Iteration 2, Energy=-154.0890297162, |grad|=0.021722
C     -0.948458     0.068207     0.046603
C      0.505997    -0.376616    -0.146792
O      1.429578     0.310906     0.658546
H     -1.202709     0.878933    -0.641301
H     -1.639475    -0.758622    -0.140518
H     -1.122125     0.409810     1.065681
H      0.776927    -0.258154    -1.195230
H      0.622421    -1.429307     0.083738
H      1.579316     1.158176     0.269151
9
Iteration 3, Energy=-154.0893937434, |grad|=0.017882
C     -0.944127     0.067005     0.046102
C      0.502259    -0.381340    -0.154980
O      1.415666     0.317516     0.650705
H     -1.206802     0.882883    -0.632261
H     -1.633300    -0.755044    -0.150906
H     -1.115251     0.409694     1.072135
H      0.779361    -0.265147    -1.210675
H      0.619649    -1.439897     0.100104
H      1.584017     1.167664     0.279653
9
Iteration 4, Energy=-154.0895430554, |grad|=0.023053
C     -0.943611     0.067996     0.046394
C      0.504212    -0.381033    -0.157598
O      1.412343     0.315664     0.650968
H     -1.208034     0.886944    -0.627042
H     -1.633618    -0.755202    -0.156998
H     -1.108634     0.405205     1.071419
H      0.778120    -0.274337    -1.214446
H      0.617488    -1.436181     0.105817
H      1.583205     1.174276     0.281364
9
Iteration 5, Energy=-154.0896977810, |grad|=0.021692
C     -0.943291     0.067550     0.044648
C      0.504763    -0.379804    -0.158947
O      1.412196     0.317070     0.650662
H     -1.208811     0.891189    -0.622474
H     -1.634099    -0.754859    -0.162078
H     -1.102593     0.400525     1.071324
H      0.776861    -0.283336    -1.216825
H      0.615572    -1.431836     0.110116
H      1.580873     1.176833     0.283450
9
Iteration 6, Energy=-154.0901670439, |grad|=0.020452
C     -0.941089     0.071507     0.034926
C      0.500083    -0.379144    -0.161529
O      1.414248     0.325419     0.639550
H     -1.210627     0.916893    -0.599521
H     -1.634005    -0.748619    -0.188777
H     -1.075275     0.368040     1.073478
H      0.776520    -0.327283    -1.224827
H      0.607154    -1.417343     0.135386
H      1.564463     1.193863     0.291191
9
Iteration 7, Energy=-154.0903011847, |grad|=0.017627
C     -0.941263     0.069522     0.032569
C      0.503101    -0.376507    -0.166793
O      1.415277     0.329280     0.633210
H     -1.210191     0.929119    -0.591333
H     -1.633017    -0.743216    -0.199515
H     -1.067561     0.354770     1.076370
H      0.776335    -0.343923    -1.224552
H      0.603207    -1.415388     0.147105
H      1.555583     1.199676     0.292816
9
Iteration 8, Energy=-154.0904347170, |grad|=0.014709
C     -0.939824     0.071680     0.029904
C      0.502589    -0.378676    -0.166399
O      1.417898     0.332248     0.626547
H     -1.208546     0.937891    -0.584617
H     -1.632696    -0.738818    -0.207716
H     -1.063934     0.342885     1.079235
H      0.778201    -0.354934    -1.224647
H      0.600604    -1.413960     0.155339
H      1.547180     1.205016     0.292232
9
Iteration 9, Energy=-154.0908155958, |grad|=0.020167
C     -0.933302     0.079091     0.026335
C      0.502588    -0.386362    -0.164784
O      1.430094     0.340492     0.602604
H     -1.198494     0.966656    -0.562230
H     -1.631979    -0.721100    -0.235533
H     -1.060001     0.302465     1.088636
H      0.786355    -0.387624    -1.222679
H      0.592261    -1.413640     0.182900
H      1.513950     1.223355     0.284628
9
Iteration 10, Energy=-154.0912078737, |grad|=0.024896
C     -0.927467     0.084002     0.025950
C      0.508706    -0.394888    -0.160707
O      1.445338     0.347948     0.575332
H     -1.178408     0.992590    -0.531978
H     -1.630059    -0.696957    -0.268297
H     -1.065659     0.262755     1.098393
H      0.793768    -0.420091    -1.221732
H      0.584297    -1.413936     0.212055
H      1.470956     1.241910     0.270861
9
Iteration 1, Energy=-154.0911423654, |grad|=0.024658
C     -0.927008     0.086826     0.027140
C      0.508935    -0.396470    -0.160234
O      1.446608     0.350836     0.568623
H     -1.178201     1.010158    -0.517526
H     -1.630078    -0.694808    -0.282824
H     -1.071041     0.241082     1.101330
H      0.793646    -0.445203    -1.219151
H      0.582419    -1.415953     0.232808
H      1.464858     1.250765     0.269857
9
Iteration 2, Energy=-154.0911258994, |grad|=0.020183
C     -0.929440     0.084930     0.026748
C      0.508330    -0.392628    -0.161333
O      1.441012     0.347437     0.580483
H     -1.185122     0.994580    -0.531097
H     -1.630545    -0.703429    -0.267690
H     -1.067713     0.262314     1.096498
H      0.792981    -0.426263    -1.220629
H      0.585228    -1.415379     0.216301
H      1.481766     1.241792     0.274153
9
Iteration -1, Energy=-154.0911258994, |grad|=0.020183
C     -0.929440     0.084930     0.026748
C      0.508330    -0.392628    -0.161333
O      1.441012     0.347437     0.580483
H     -1.185122     0.994580    -0.531097
H     -1.630545    -0.703429    -0.267690
H     -1.067713     0.262314     1.096498
H      0.792981    -0.426263    -1.220629
H      0.585228    -1.415379     0.216301
H      1.481766     1.241792     0.274153
9
Iteration 1, Energy=-154.0913161313, |grad|=0.028184
C     -0.925762     0.075496     0.034828
C      0.507471    -0.395308    -0.164447
O      1.442446     0.349589     0.582389
H     -1.176976     0.991145    -0.526657
H     -1.628921    -0.698382    -0.272056
H     -1.074510     0.267552     1.093730
H      0.789063    -0.424461    -1.219810
H      0.586621    -1.410979     0.215258
H      1.477063     1.238703     0.270201
9
Iteration 2, Energy=-154.0914973255, |grad|=0.015636
C     -0.923930     0.074867     0.035118
C      0.508657    -0.394982    -0.162094
O      1.441517     0.347682     0.582306
H     -1.170807     0.986963    -0.522509
H     -1.629103    -0.697017    -0.275130
H     -1.078947     0.270447     1.094828
H      0.786642    -0.423181    -1.220896
H      0.588331    -1.410457     0.214921
H      1.474137     1.239033     0.266890
9
Iteration 3, Energy=-154.0916492482, |grad|=0.013895
C     -0.921411     0.073718     0.037433
C      0.510834    -0.394907    -0.158351
O      1.440541     0.348539     0.580825
H     -1.158070     0.981116    -0.515790
H     -1.629465    -0.694858    -0.281597
H     -1.087900     0.275350     1.097072
H      0.781365    -0.420388    -1.222214
H      0.592530    -1.411827     0.214708
H      1.468073     1.236610     0.261348
9
Iteration 4, Energy=-154.0917554876, |grad|=0.016921
C     -0.921035     0.071574     0.041478
C      0.511850    -0.396397    -0.155731
O      1.440643     0.347877     0.580159
H     -1.147139     0.981249    -0.513182
H     -1.629280    -0.693309    -0.287096
H     -1.095366     0.277685     1.099291
H      0.776342    -0.417794    -1.221928
H      0.597555    -1.415443     0.214985
H      1.462925     1.237912     0.255457
9
Iteration 5, Energy=-154.0919264700, |grad|=0.012861
C     -0.921486     0.069804     0.047349
C      0.511902    -0.402602    -0.149616
O      1.442034     0.351498     0.577020
H     -1.126612     0.984689    -0.510058
H     -1.628858    -0.690915    -0.296967
H     -1.108924     0.279271     1.104696
H      0.766530    -0.413046    -1.220050
H      0.608394    -1.423764     0.215387
H      1.453517     1.238419     0.245675
9
Iteration 6, Energy=-154.0919574192, |grad|=0.026486
C     -0.921481     0.071557     0.051614
C      0.510064    -0.403012    -0.146450
O      1.442244     0.355165     0.570212
H     -1.105885     0.991346    -0.507278
H     -1.627959    -0.683807    -0.304473
H     -1.120625     0.269918     1.105007
H      0.754100    -0.413307    -1.208797
H      0.622313    -1.434239     0.217651
H      1.443725     1.239734     0.235950
9
Iteration 7, Energy=-154.0920662285, |grad|=0.006372
C     -0.921581     0.070847     0.050659
C      0.509260    -0.407544    -0.143274
O      1.443063     0.356105     0.570436
H     -1.107277     0.993445    -0.508136
H     -1.627936    -0.683431    -0.304210
H     -1.119826     0.268644     1.105624
H      0.754915    -0.413911    -1.210949
H      0.621643    -1.431389     0.216992
H      1.444234     1.240587     0.236293
9
Iteration 8, Energy=-154.0920839237, |grad|=0.005701
C     -0.921138     0.071319     0.049432
C      0.509027    -0.407605    -0.143396
O      1.443295     0.356506     0.570472
H     -1.108979     0.994223    -0.508072
H     -1.628307    -0.682618    -0.303654
H     -1.118509     0.266247     1.105160
H      0.755466    -0.415741    -1.210914
H      0.620901    -1.429873     0.217488
H      1.444739     1.240895     0.236920
9
Iteration 9, Energy=-154.0921330376, |grad|=0.007836
C     -0.919822     0.072170     0.047812
C      0.509317    -0.407878    -0.142579
O      1.444107     0.358658     0.569268
H     -1.108036     0.998103    -0.505670
H     -1.629881    -0.678124    -0.305945
H     -1.118115     0.257215     1.104826
H      0.754415    -0.422048    -1.210586
H      0.621443    -1.427293     0.220727
H      1.443067     1.242551     0.235580
9
Iteration 10, Energy=-154.0922223693, |grad|=0.011732
C     -0.917975     0.073089     0.046520
C      0.510439    -0.409655    -0.142400
O      1.445709     0.363696     0.565600
H     -1.101233     1.005673    -0.496692
H     -1.632938    -0.668299    -0.315830
H     -1.120259     0.240277     1.106585
H      0.751850    -0.434775    -1.210649
H      0.623548    -1.423721     0.230026
H      1.437355     1.247069     0.230274
9
Iteration 1, Energy=-154.0918795188, |grad|=0.049194
C     -0.910118     0.074256     0.044939
C      0.512028    -0.405248    -0.141933
O      1.447519     0.369087     0.559054
H     -1.099893     1.010159    -0.469934
H     -1.632982    -0.686619    -0.328492
H     -1.121604     0.234063     1.107178
H      0.751659    -0.459064    -1.210648
H      0.623638    -1.420038     0.240787
H      1.421254     1.256164     0.229240
9
Iteration 2, Energy=-154.0921829128, |grad|=0.023036
C     -0.917782     0.071536     0.048361
C      0.510594    -0.408675    -0.145352
O      1.441928     0.363131     0.565757
H     -1.092090     0.999603    -0.488383
H     -1.630557    -0.668874    -0.321261
H     -1.119317     0.246650     1.107848
H      0.757267    -0.432465    -1.209643
H      0.620079    -1.425443     0.231054
H      1.433586     1.244434     0.237540
9
Iteration -1, Energy=-154.0922223693, |grad|=0.011732
C     -0.917975     0.073089     0.046520
C      0.510439    -0.409655    -0.142400
O      1.445709     0.363696     0.565600
H     -1.101233     1.005673    -0.496692
H     -1.632938    -0.668299    -0.315830
H     -1.120259     0.240277     1.106585
H      0.751850    -0.434775    -1.210649
H      0.623548    -1.423721     0.230026
H      1.437355     1.247069     0.230274
9
Iteration 1, Energy=-154.0922511536, |grad|=0.008325
C     -0.918605     0.072537     0.048126
C      0.511199    -0.407060    -0.143086
O      1.444647     0.362575     0.564388
H     -1.100896     1.005914    -0.495464
H     -1.632906    -0.668542    -0.317504
H     -1.120077     0.240734     1.106495
H      0.752769    -0.435138    -1.211085
H      0.623190    -1.425445     0.231679
H      1.437174     1.247779     0.229886
9
Iteration 2, Energy=-154.0922665438, |grad|=0.006247
C     -0.918875     0.072402     0.048364
C      0.511133    -0.407480    -0.143154
O      1.444434     0.363206     0.563491
H     -1.100700     1.005989    -0.494251
H     -1.632765    -0.668661    -0.318776
H     -1.120041     0.241070     1.106968
H      0.753478    -0.435335    -1.211546
H      0.622768    -1.425487     0.232461
H      1.437064     1.247651     0.229878
9
Iteration 3, Energy=-154.0923043699, |grad|=0.005159
C     -0.919779     0.071277     0.049181
C      0.510491    -0.409618    -0.143959
O      1.443866     0.364304     0.560312
H     -1.099795     1.006758    -0.488308
H     -1.631961    -0.668913    -0.324896
H     -1.119952     0.242339     1.109282
H      0.756625    -0.436591    -1.213209
H      0.620763    -1.425203     0.236228
H      1.436239     1.249001     0.228802
9
Iteration 4, Energy=-154.0923233978, |grad|=0.006520
C     -0.919414     0.069935     0.049677
C      0.509921    -0.410089    -0.145190
O      1.444481     0.365434     0.558852
H     -1.099164     1.008564    -0.483955
H     -1.631286    -0.668082    -0.329080
H     -1.119966     0.241259     1.109830
H      0.757740    -0.438817    -1.212789
H      0.619427    -1.424567     0.238905
H      1.434756     1.249717     0.227185
9
Iteration 5, Energy=-154.0923591775, |grad|=0.006687
C     -0.918783     0.068920     0.049709
C      0.510064    -0.410743    -0.145194
O      1.445226     0.366583     0.555681
H     -1.097695     1.012168    -0.474848
H     -1.629990    -0.665930    -0.337294
H     -1.120004     0.237338     1.110481
H      0.759412    -0.444080    -1.212278
H      0.616937    -1.422781     0.243997
H      1.431329     1.251878     0.223180
9
Iteration 6, Energy=-154.0924291170, |grad|=0.008569
C     -0.917316     0.068599     0.049494
C      0.511081    -0.410843    -0.144361
O      1.447218     0.371345     0.548811
H     -1.094032     1.021819    -0.456919
H     -1.626919    -0.659452    -0.353614
H     -1.120709     0.224122     1.110944
H      0.761075    -0.457081    -1.210267
H      0.612860    -1.419972     0.255126
H      1.423237     1.254817     0.214220
9
Iteration 7, Energy=-154.0925096874, |grad|=0.018956
C     -0.912821     0.071238     0.049383
C      0.511132    -0.415439    -0.141344
O      1.449889     0.379136     0.535540
H     -1.084343     1.044422    -0.426862
H     -1.620681    -0.642914    -0.384160
H     -1.125858     0.189714     1.114825
H      0.762266    -0.483509    -1.206823
H      0.608986    -1.414847     0.278389
H      1.407925     1.265552     0.194487
9
Iteration 8, Energy=-154.0925849919, |grad|=0.008255
C     -0.913610     0.073205     0.048326
C      0.512826    -0.414404    -0.140347
O      1.449966     0.382578     0.532540
H     -1.081070     1.047559    -0.422584
H     -1.619352    -0.637526    -0.387764
H     -1.127859     0.180328     1.114648
H      0.760343    -0.488992    -1.205079
H      0.609936    -1.414558     0.282431
H      1.405315     1.265164     0.191265
9
Iteration 9, Energy=-154.0926192774, |grad|=0.004685
C     -0.912772     0.075294     0.048875
C      0.513039    -0.414276    -0.138341
O      1.450001     0.385628     0.529987
H     -1.077225     1.050936    -0.420339
H     -1.619177    -0.632143    -0.390829
H     -1.130817     0.170223     1.114192
H      0.757948    -0.493826    -1.204105
H      0.612148    -1.414019     0.285960
H      1.403351     1.265536     0.188034
9
Iteration 10, Energy=-154.0926355673, |grad|=0.004752
C     -0.912422     0.075529     0.049364
C      0.513074    -0.414720    -0.137328
O      1.450225     0.387217     0.528287
H     -1.073613     1.052648    -0.418274
H     -1.619727    -0.628387    -0.393765
H     -1.133658     0.164309     1.114594
H      0.756200    -0.496534    -1.203598
H      0.614095    -1.413333     0.288668
H      1.402321     1.266624     0.185486
9
Iteration 1, Energy=-154.0919210228, |grad|=0.052775
C     -0.912700     0.074691     0.050626
C      0.518253    -0.395202    -0.136223
O      1.448768     0.389221     0.540689
H     -1.087056     1.044031    -0.422943
H     -1.623927    -0.641139    -0.370321
H     -1.141552     0.164833     1.102703
H      0.737398    -0.494797    -1.204377
H      0.626640    -1.413264     0.276911
H      1.404648     1.258897     0.185057
9
Iteration 2, Energy=-154.0924293999, |grad|=0.031679
C     -0.915299     0.075778     0.051871
C      0.512510    -0.413954    -0.134326
O      1.448334     0.383688     0.525440
H     -1.070142     1.059961    -0.430925
H     -1.621146    -0.633533    -0.396678
H     -1.136703     0.159165     1.114164
H      0.754744    -0.489805    -1.205005
H      0.614982    -1.415266     0.292439
H      1.406010     1.268774     0.183278
9
Iteration -1, Energy=-154.0926355673, |grad|=0.004752
C     -0.912422     0.075529     0.049364
C      0.513074    -0.414720    -0.137328
O      1.450225     0.387217     0.528287
H     -1.073613     1.052648    -0.418274
H     -1.619727    -0.628387    -0.393765
H     -1.133658     0.164309     1.114594
H      0.756200    -0.496534    -1.203598
H      0.614095    -1.413333     0.288668
H      1.402321     1.266624     0.185486
9
Iteration 1, Energy=-154.0926461600, |grad|=0.007707
C     -0.911984     0.073778     0.050510
C      0.512494    -0.415137    -0.137601
O      1.450728     0.386326     0.528718
H     -1.071735     1.051723    -0.417739
H     -1.621402    -0.628232    -0.395050
H     -1.135259     0.165384     1.114646
H      0.755424    -0.495668    -1.203561
H      0.615375    -1.412785     0.288864
H      1.402855     1.267965     0.184648
9
Iteration 2, Energy=-154.0926583929, |grad|=0.004981
C     -0.912255     0.072859     0.050822
C      0.512497    -0.415467    -0.137409
O      1.450836     0.387021     0.528341
H     -1.070251     1.050792    -0.417223
H     -1.622408    -0.627943    -0.395826
H     -1.136462     0.166069     1.114847
H      0.754797    -0.495024    -1.203650
H      0.616367    -1.412598     0.288979
H      1.403375     1.267646     0.184553
9
Iteration 3, Energy=-154.0926753108, |grad|=0.002883
C     -0.913657     0.070470     0.051572
C      0.513042    -0.415747    -0.136468
O      1.450732     0.387974     0.527294
H     -1.065514     1.047922    -0.415685
H     -1.625234    -0.626844    -0.398001
H     -1.140305     0.167836     1.115413
H      0.752672    -0.493075    -1.203916
H      0.619820    -1.412674     0.289471
H      1.404939     1.267491     0.183755
9
Iteration 4, Energy=-154.0926812613, |grad|=0.002914
C     -0.913951     0.070162     0.052340
C      0.512700    -0.416150    -0.135967
O      1.450567     0.388504     0.527214
H     -1.063627     1.047715    -0.415652
H     -1.625970    -0.626262    -0.398581
H     -1.142203     0.167617     1.115271
H      0.751427    -0.492365    -1.203717
H      0.621985    -1.413427     0.289597
H      1.405569     1.267560     0.182930
9
Iteration 5, Energy=-154.0926882220, |grad|=0.003892
C     -0.914750     0.069661     0.052654
C      0.512346    -0.417643    -0.133580
O      1.449545     0.389272     0.527384
H     -1.058579     1.048025    -0.415777
H     -1.626989    -0.624013    -0.399561
H     -1.148008     0.165988     1.115895
H      0.747412    -0.490672    -1.202691
H      0.628390    -1.415404     0.289451
H      1.407128     1.268139     0.179658
9
Iteration 6, Energy=-154.0926913287, |grad|=0.002586
C     -0.914261     0.070325     0.053519
C      0.512732    -0.416893    -0.133994
O      1.449263     0.389493     0.527740
H     -1.059025     1.048781    -0.415901
H     -1.626516    -0.624097    -0.399644
H     -1.147913     0.165092     1.115362
H      0.747278    -0.491232    -1.202035
H      0.628157    -1.415567     0.289337
H      1.406780     1.267451     0.179051
9
Iteration 7, Energy=-154.0926925229, |grad|=0.001276
C     -0.914087     0.070437     0.053261
C      0.512558    -0.416948    -0.133910
O      1.449441     0.389457     0.527889
H     -1.059614     1.048890    -0.415799
H     -1.626175    -0.624224    -0.399550
H     -1.147371     0.165041     1.115408
H      0.747718    -0.491498    -1.202218
H      0.627460    -1.415193     0.289242
H      1.406566     1.267391     0.179111
9
Iteration 8, Energy=-154.0926935201, |grad|=0.001015
C     -0.913990     0.070501     0.053182
C      0.512488    -0.416897    -0.133706
O      1.449494     0.389587     0.528147
H     -1.059723     1.049061    -0.415456
H     -1.625781    -0.624079    -0.399776
H     -1.147435     0.164669     1.115481
H      0.747794    -0.491734    -1.202148
H      0.627206    -1.414930     0.289180
H      1.406443     1.267175     0.178531
9
Iteration 9, Energy=-154.0926954410, |grad|=0.001686
C     -0.913852     0.070560     0.053353
C      0.512471    -0.416755    -0.133080
O      1.449368     0.390048     0.528640
H     -1.059327     1.049446    -0.414308
H     -1.625032    -0.623535    -0.400840
H     -1.148316     0.163566     1.115670
H      0.747615    -0.492091    -1.201757
H      0.627155    -1.414521     0.289218
H      1.406413     1.266635     0.176539
9
Iteration 10, Energy=-154.0926982106, |grad|=0.002322
C     -0.913829     0.070366     0.053733
C      0.512391    -0.416585    -0.132297
O      1.448985     0.390922     0.529041
H     -1.058468     1.050211    -0.412153
H     -1.623969    -0.622615    -0.402952
H     -1.149960     0.161726     1.116081
H      0.747406    -0.492405    -1.200981
H      0.627179    -1.414258     0.289795
H      1.406761     1.265990     0.173167
9
Iteration 1, Energy=-154.0913368498, |grad|=0.084147
C     -0.913710     0.070303     0.055694
C      0.519233    -0.393992    -0.136147
O      1.450184     0.395509     0.529253
H     -1.058498     1.050903    -0.404166
H     -1.636197    -0.621407    -0.404812
H     -1.153773     0.153806     1.098641
H      0.722823    -0.495739    -1.202042
H      0.646454    -1.418232     0.290640
H      1.407385     1.265557     0.190377
9
Iteration 2, Energy=-154.0924055944, |grad|=0.020300
C     -0.914544     0.071805     0.051447
C      0.513491    -0.411233    -0.133722
O      1.448342     0.391900     0.543709
H     -1.082350     1.042680    -0.437052
H     -1.626159    -0.640758    -0.366899
H     -1.147110     0.165241     1.111628
H      0.743877    -0.487889    -1.203460
H      0.629730    -1.417384     0.272178
H      1.409440     1.259885     0.176274
9
Iteration -1, Energy=-154.0926982106, |grad|=0.002322
C     -0.913829     0.070366     0.053733
C      0.512391    -0.416585    -0.132297
O      1.448985     0.390922     0.529041
H     -1.058468     1.050211    -0.412153
H     -1.623969    -0.622615    -0.402952
H     -1.149960     0.161726     1.116081
H      0.747406    -0.492405    -1.200981
H      0.627179    -1.414258     0.289795
H      1.406761     1.265990     0.173167
9
Iteration 1, Energy=-154.0926994127, |grad|=0.001567
C     -0.913956     0.070555     0.054146
C      0.512651    -0.416437    -0.132609
O      1.448707     0.390896     0.528699
H     -1.058466     1.050306    -0.411991
H     -1.624158    -0.622768    -0.403236
H     -1.149924     0.161584     1.115887
H      0.747507    -0.492313    -1.200793
H      0.627131    -1.414598     0.290191
H      1.407004     1.266129     0.173141
9
Iteration 2, Energy=-154.0927000148, |grad|=0.001153
C     -0.914016     0.070501     0.054041
C      0.512594    -0.416556    -0.132551
O      1.448649     0.390977     0.528508
H     -1.058480     1.050397    -0.411830
H     -1.624204    -0.622761    -0.403374
H     -1.149934     0.161481     1.115956
H      0.747612    -0.492254    -1.200815
H      0.627084    -1.414658     0.290397
H      1.407192     1.266227     0.173102
9
Iteration 3, Energy=-154.0927014064, |grad|=0.001154
C     -0.914324     0.070170     0.053741
C      0.512236    -0.416980    -0.132533
O      1.448553     0.391194     0.527866
H     -1.058537     1.050857    -0.410952
H     -1.624472    -0.622674    -0.404138
H     -1.149995     0.160837     1.116118
H      0.748094    -0.492095    -1.200812
H      0.626842    -1.414842     0.291472
H      1.408099     1.266885     0.172673
9
Iteration 4, Energy=-154.0927020108, |grad|=0.002132
C     -0.914554     0.070088     0.053670
C      0.512161    -0.417071    -0.132497
O      1.448571     0.391782     0.527485
H     -1.058558     1.051051    -0.410130
H     -1.624738    -0.622518    -0.404810
H     -1.150095     0.160105     1.116035
H      0.748337    -0.492260    -1.200767
H      0.626622    -1.414628     0.292165
H      1.408748     1.266806     0.172283
9
Iteration 5, Energy=-154.0927028813, |grad|=0.001708
C     -0.914666     0.069992     0.053620
C      0.512160    -0.416973    -0.132470
O      1.448594     0.391875     0.527410
H     -1.058575     1.051186    -0.409576
H     -1.624897    -0.622361    -0.405255
H     -1.150196     0.159559     1.115978
H      0.748455    -0.492457    -1.200712
H      0.626491    -1.414402     0.292590
H      1.409130     1.266936     0.171850
9
Iteration 6, Energy=-154.0927068261, |grad|=0.001545
C     -0.915203     0.069251     0.053339
C      0.512204    -0.416103    -0.132316
O      1.448764     0.392926     0.527104
H     -1.058777     1.052382    -0.405458
H     -1.625898    -0.620941    -0.408634
H     -1.151211     0.155113     1.115609
H      0.749119    -0.494308    -1.200099
H      0.625597    -1.412335     0.295536
H      1.411901     1.267370     0.168354
9
Iteration 7, Energy=-154.0927087671, |grad|=0.001799
C     -0.915377     0.069359     0.053301
C      0.512287    -0.415881    -0.131991
O      1.448467     0.393616     0.526952
H     -1.058966     1.053247    -0.403406
H     -1.625920    -0.620004    -0.410453
H     -1.152067     0.152419     1.115632
H      0.749348    -0.495448    -1.199689
H      0.625402    -1.411362     0.296884
H      1.413322     1.267407     0.166206
9
Iteration 8, Energy=-154.0927120281, |grad|=0.002737
C     -0.915820     0.069161     0.053428
C      0.511860    -0.414604    -0.131159
O      1.447509     0.396410     0.526684
H     -1.059583     1.056874    -0.396846
H     -1.625073    -0.616444    -0.416518
H     -1.155403     0.143274     1.115966
H      0.749929    -0.499354    -1.198084
H      0.625207    -1.409051     0.301372
H      1.417870     1.267089     0.158592
9
Iteration 9, Energy=-154.0927141160, |grad|=0.002070
C     -0.915946     0.070124     0.053939
C      0.511795    -0.415352    -0.130439
O      1.447139     0.397059     0.526866
H     -1.059470     1.057537    -0.395644
H     -1.624115    -0.615840    -0.417895
H     -1.156576     0.141666     1.116100
H      0.749689    -0.499841    -1.197611
H      0.625632    -1.408961     0.301592
H      1.418346     1.266962     0.156527
9
Iteration 10, Energy=-154.0927151638, |grad|=0.001262
C     -0.915852     0.070133     0.053992
C      0.511827    -0.415388    -0.130336
O      1.447058     0.396900     0.526817
H     -1.059270     1.057335    -0.396356
H     -1.623783    -0.616139    -0.417358
H     -1.156553     0.142704     1.116247
H      0.749461    -0.499301    -1.197644
H      0.625882    -1.409669     0.301010
H      1.417727     1.266778     0.157063
9
Iteration 1, Energy=-154.0921707932, |grad|=0.049130
C     -0.917676     0.065096     0.054031
C      0.515417    -0.398429    -0.133670
O      1.448453     0.404854     0.525465
H     -1.058831     1.060440    -0.371076
H     -1.637569    -0.611411    -0.425705
H     -1.161628     0.118632     1.103682
H      0.739620    -0.507902    -1.196024
H      0.630643    -1.401323     0.308598
H      1.423456     1.269132     0.150989
9
Iteration 2, Energy=-154.0925829137, |grad|=0.027487
C     -0.915808     0.070905     0.053395
C      0.509951    -0.422099    -0.129807
O      1.446810     0.395023     0.526794
H     -1.060358     1.056500    -0.400251
H     -1.620755    -0.616794    -0.413470
H     -1.154798     0.145112     1.121045
H      0.756615    -0.499238    -1.197723
H      0.620725    -1.408073     0.299493
H      1.417216     1.267413     0.153766
9
Iteration -1, Energy=-154.0927151638, |grad|=0.001262
C     -0.915852     0.070133     0.053992
C      0.511827    -0.415388    -0.130336
O      1.447058     0.396900     0.526817
H     -1.059270     1.057335    -0.396356
H     -1.623783    -0.616139    -0.417358
H     -1.156553     0.142704     1.116247
H      0.749461    -0.499301    -1.197644
H      0.625882    -1.409669     0.301010
H      1.417727     1.266778     0.157063
9
Iteration 1, Energy=-154.0927156671, |grad|=0.001205
C     -0.915786     0.069736     0.053979
C      0.511788    -0.415150    -0.130300
O      1.447117     0.396905     0.526778
H     -1.059065     1.057394    -0.396254
H     -1.623724    -0.616153    -0.417486
H     -1.156740     0.142929     1.116316
H      0.749346    -0.499099    -1.197528
H      0.625924    -1.409908     0.301035
H      1.417636     1.266699     0.156895
9
Iteration 2, Energy=-154.0927161403, |grad|=0.001085
C     -0.915776     0.069625     0.054036
C      0.511820    -0.415209    -0.130172
O      1.447162     0.396939     0.526738
H     -1.058834     1.057332    -0.396105
H     -1.623689    -0.616228    -0.417655
H     -1.156931     0.143135     1.116325
H      0.749225    -0.498868    -1.197435
H      0.625966    -1.410012     0.300990
H      1.417551     1.266640     0.156714
9
Iteration 3, Energy=-154.0927170686, |grad|=0.001952
C     -0.915918     0.069421     0.054478
C      0.511808    -0.415404    -0.129811
O      1.447320     0.396807     0.526840
H     -1.057791     1.057032    -0.395617
H     -1.623328    -0.616367    -0.418221
H     -1.157826     0.143744     1.116267
H      0.748700    -0.497993    -1.197108
H      0.626349    -1.410520     0.300849
H      1.417180     1.266633     0.155758
9
Iteration 4, Energy=-154.0927177253, |grad|=0.000988
C     -0.915888     0.069178     0.054761
C      0.511802    -0.415773    -0.129220
O      1.447400     0.397262     0.526652
H     -1.056777     1.056807    -0.395162
H     -1.623012    -0.616508    -0.418789
H     -1.158772     0.144325     1.116362
H      0.748167    -0.497123    -1.196846
H      0.626711    -1.410915     0.300628
H      1.416866     1.266101     0.155049
9
Iteration 5, Energy=-154.0927179078, |grad|=0.000465
C     -0.915834     0.069251     0.054722
C      0.511835    -0.415720    -0.129259
O      1.447300     0.397138     0.526691
H     -1.056902     1.056887    -0.395290
H     -1.623042    -0.616447    -0.418687
H     -1.158714     0.144149     1.116406
H      0.748206    -0.497277    -1.196892
H      0.626723    -1.410827     0.300643
H      1.416924     1.266199     0.155100
9
Iteration 6, Energy=-154.0927180346, |grad|=0.000415
C     -0.915785     0.069310     0.054774
C      0.511853    -0.415707    -0.129255
O      1.447195     0.397107     0.526736
H     -1.056841     1.056956    -0.395388
H     -1.622992    -0.616360    -0.418655
H     -1.158856     0.143988     1.116465
H      0.748130    -0.497323    -1.196881
H      0.626851    -1.410813     0.300631
H      1.416941     1.266195     0.155008
9
Iteration 7, Energy=-154.0927181937, |grad|=0.000432
C     -0.915736     0.069377     0.054907
C      0.511843    -0.415722    -0.129141
O      1.447051     0.397164     0.526825
H     -1.056534     1.057038    -0.395477
H     -1.622846    -0.616176    -0.418693
H     -1.159293     0.143730     1.116573
H      0.747885    -0.497295    -1.196830
H      0.627181    -1.410859     0.300585
H      1.416944     1.266097     0.154686
9
Iteration 8, Energy=-154.0927182951, |grad|=0.000481
C     -0.915758     0.069390     0.055074
C      0.511837    -0.415683    -0.129061
O      1.446995     0.397345     0.526895
H     -1.056239     1.057097    -0.395401
H     -1.622879    -0.615982    -0.418875
H     -1.159655     0.143393     1.116548
H      0.747642    -0.497349    -1.196716
H      0.627480    -1.410879     0.300622
H      1.417073     1.266020     0.154348
9
Iteration 9, Energy=-154.0927183905, |grad|=0.000272
C     -0.915807     0.069323     0.055109
C      0.511805    -0.415726    -0.128828
O      1.446962     0.397539     0.526935
H     -1.055857     1.057122    -0.395202
H     -1.622879    -0.615764    -0.419130
H     -1.160107     0.143112     1.116600
H      0.747374    -0.497320    -1.196610
H      0.627797    -1.410893     0.300654
H      1.417208     1.265961     0.153908
9
Iteration 10, Energy=-154.0927184678, |grad|=0.000338
C     -0.915860     0.069243     0.055120
C      0.511782    -0.415744    -0.128738
O      1.446953     0.397687     0.526908
H     -1.055706     1.057150    -0.394957
H     -1.622984    -0.615631    -0.419380
H     -1.160292     0.142892     1.116580
H      0.747286    -0.497365    -1.196527
H      0.627922    -1.410859     0.300774
H      1.417395     1.265980     0.153654
9
Iteration 1, Energy=-154.0924865797, |grad|=0.022298
C     -0.916045     0.070122     0.051577
C      0.513372    -0.409592    -0.137388
O      1.450338     0.393388     0.522269
H     -1.079876     1.058261    -0.381061
H     -1.621482    -0.622437    -0.417956
H     -1.142407     0.139581     1.112746
H      0.765063    -0.505850    -1.198480
H      0.604344    -1.403061     0.310876
H      1.418361     1.269576     0.158219
9
Iteration 2, Energy=-154.0923840267, |grad|=0.037501
C     -0.917370     0.066270     0.052733
C      0.514528    -0.401978    -0.133776
O      1.448613     0.402584     0.525768
H     -1.060874     1.060299    -0.377648
H     -1.635181    -0.612750    -0.423537
H     -1.157851     0.124482     1.106261
H      0.742999    -0.507039    -1.197230
H      0.628474    -1.402605     0.306976
H      1.422649     1.269132     0.155808
9
Iteration -1, Energy=-154.0927184678, |grad|=0.000338
C     -0.915860     0.069243     0.055120
C      0.511782    -0.415744    -0.128738
O      1.446953     0.397687     0.526908
H     -1.055706     1.057150    -0.394957
H     -1.622984    -0.615631    -0.419380
H     -1.160292     0.142892     1.116580
H      0.747286    -0.497365    -1.196527
H      0.627922    -1.410859     0.300774
H      1.417395     1.265980     0.153654
9
Iteration 1, Energy=-154.0927184850, |grad|=0.000535
C     -0.915861     0.069226     0.055121
C      0.511803    -0.415731    -0.128756
O      1.446909     0.397580     0.526890
H     -1.055741     1.057172    -0.394877
H     -1.622992    -0.615633    -0.419444
H     -1.160284     0.142877     1.116588
H      0.747340    -0.497369    -1.196524
H      0.627889    -1.410850     0.300848
H      1.417432     1.266081     0.153590
9
Iteration 2, Energy=-154.0927185150, |grad|=0.000285
C     -0.915864     0.069222     0.055117
C      0.511795    -0.415744    -0.128760
O      1.446910     0.397627     0.526869
H     -1.055750     1.057177    -0.394856
H     -1.622992    -0.615631    -0.419459
H     -1.160281     0.142870     1.116590
H      0.747354    -0.497372    -1.196526
H      0.627879    -1.410844     0.300862
H      1.417444     1.266048     0.153598
9
Iteration 3, Energy=-154.0927185570, |grad|=0.000210
C     -0.915876     0.069202     0.055106
C      0.511780    -0.415768    -0.128783
O      1.446894     0.397683     0.526809
H     -1.055796     1.057206    -0.394743
H     -1.622995    -0.615623    -0.419542
H     -1.160268     0.142836     1.116597
H      0.747427    -0.497387    -1.196531
H      0.627830    -1.410820     0.300950
H      1.417500     1.266026     0.153571
