9
Iteration -1, Energy=-154.0855821065, |grad|=0.023006
C     -0.983669     0.057162     0.024265
C      0.488936    -0.324526    -0.179249
O      1.335264     0.308956     0.754771
H     -1.357455     0.737536    -0.739569
H     -1.614988    -0.830446     0.034757
H     -1.074031     0.541727     0.990975
H      0.795977    -0.125698    -1.207588
H      0.613361    -1.390190    -0.026654
H      1.796605     1.025478     0.348292
9
Iteration 1, Energy=-154.0856645606, |grad|=0.026335
C     -0.976602     0.054612     0.024947
C      0.485653    -0.322588    -0.175119
O      1.336514     0.309912     0.748679
H     -1.357794     0.740081    -0.741109
H     -1.618245    -0.831236     0.031960
H     -1.076705     0.543596     0.996033
H      0.799471    -0.123285    -1.208539
H      0.613781    -1.397023    -0.024695
H      1.793927     1.025933     0.347844
9
Iteration 2, Energy=-154.0857635419, |grad|=0.011855
C     -0.979006     0.055867     0.025744
C      0.487756    -0.324834    -0.176800
O      1.336241     0.308881     0.749402
H     -1.356972     0.739677    -0.740277
H     -1.618134    -0.830654     0.031257
H     -1.077114     0.543192     0.995889
H      0.799547    -0.123165    -1.207366
H      0.613625    -1.396586    -0.024379
H      1.794057     1.027623     0.346532
9
Iteration 3, Energy=-154.0858310658, |grad|=0.009003
C     -0.980333     0.056702     0.027134
C      0.489355    -0.327803    -0.177789
O      1.337461     0.308555     0.748055
H     -1.355462     0.740000    -0.739190
H     -1.619144    -0.829620     0.028852
H     -1.078872     0.543015     0.997500
H      0.801078    -0.122222    -1.205885
H      0.613559    -1.398454    -0.023127
H      1.792358     1.029828     0.344450
9
Iteration 4, Energy=-154.0859272463, |grad|=0.013268
C     -0.981060     0.057269     0.029949
C      0.491078    -0.332358    -0.177759
O      1.340951     0.307299     0.744408
H     -1.351703     0.741607    -0.736695
H     -1.622142    -0.826999     0.022756
H     -1.083254     0.542302     1.001669
H      0.805021    -0.120473    -1.203322
H      0.613686    -1.403858    -0.020017
H      1.787423     1.035210     0.339011
9
Iteration 5, Energy=-154.0860386991, |grad|=0.019901
C     -0.981243     0.057879     0.033423
C      0.492732    -0.338127    -0.176083
O      1.350237     0.307414     0.739351
H     -1.344254     0.745311    -0.731519
H     -1.626998    -0.822250     0.012955
H     -1.089572     0.538512     1.006263
H      0.809349    -0.121022    -1.199336
H      0.613959    -1.409038    -0.015797
H      1.775790     1.041321     0.330742
9
Iteration 6, Energy=-154.0861987125, |grad|=0.017189
C     -0.978636     0.057129     0.037595
C      0.494648    -0.342873    -0.171002
O      1.361764     0.303141     0.732745
H     -1.332805     0.752722    -0.724185
H     -1.634587    -0.815367    -0.001820
H     -1.098729     0.532016     1.013571
H      0.814750    -0.123797    -1.194113
H      0.614711    -1.416583    -0.009255
H      1.758883     1.053611     0.316465
9
Iteration 7, Energy=-154.0864136462, |grad|=0.015257
C     -0.974469     0.055945     0.040129
C      0.497129    -0.346016    -0.163800
O      1.375982     0.300034     0.725165
H     -1.318104     0.764688    -0.715496
H     -1.641531    -0.807794    -0.018089
H     -1.106925     0.520915     1.020377
H      0.816048    -0.133190    -1.188979
H      0.615746    -1.420029    -0.002007
H      1.736124     1.065448     0.302700
9
Iteration 8, Energy=-154.0868148669, |grad|=0.028409
C     -0.964974     0.058441     0.043806
C      0.498008    -0.352909    -0.152110
O      1.401341     0.295890     0.710527
H     -1.285394     0.794594    -0.696761
H     -1.649922    -0.794428    -0.051500
H     -1.118531     0.492434     1.032997
H      0.811491    -0.161521    -1.184123
H      0.618834    -1.424680     0.016403
H      1.689146     1.092179     0.280762
9
Iteration 9, Energy=-154.0873803602, |grad|=0.044790
C     -0.956226     0.057732     0.043425
C      0.503038    -0.358499    -0.138671
O      1.424753     0.296474     0.686712
H     -1.243016     0.838752    -0.672682
H     -1.650998    -0.775436    -0.092781
H     -1.126759     0.452892     1.050204
H      0.796867    -0.207507    -1.183639
H      0.622152    -1.427204     0.043469
H      1.630190     1.122797     0.263961
9
Iteration 10, Energy=-154.0883721471, |grad|=0.047570
C     -0.941548     0.066742     0.043317
C      0.504144    -0.367590    -0.132720
O      1.437757     0.306551     0.658650
H     -1.198386     0.888510    -0.644247
H     -1.645508    -0.759896    -0.137369
H     -1.127374     0.405862     1.065468
H      0.773120    -0.266380    -1.191198
H      0.625330    -1.427434     0.078646
H      1.572466     1.153634     0.259453
9
Iteration 1, Energy=-154.0883721471, |grad|=0.047570
C     -0.941548     0.066742     0.043317
C      0.504144    -0.367590    -0.132720
O      1.437757     0.306551     0.658650
H     -1.198386     0.888510    -0.644247
H     -1.645508    -0.759896    -0.137369
H     -1.127374     0.405862     1.065468
H      0.773120    -0.266380    -1.191198
H      0.625330    -1.427434     0.078646
H      1.572466     1.153634     0.259453
9
Iteration 2, Energy=-154.0883721471, |grad|=0.047570
C     -0.941548     0.066742     0.043317
C      0.504144    -0.367590    -0.132720
O      1.437757     0.306551     0.658650
H     -1.198386     0.888510    -0.644247
H     -1.645508    -0.759896    -0.137369
H     -1.127374     0.405862     1.065468
H      0.773120    -0.266380    -1.191198
H      0.625330    -1.427434     0.078646
H      1.572466     1.153634     0.259453
9
Iteration -1, Energy=-154.0883721471, |grad|=0.047570
C     -0.941548     0.066742     0.043317
C      0.504144    -0.367590    -0.132720
O      1.437757     0.306551     0.658650
H     -1.198386     0.888510    -0.644247
H     -1.645508    -0.759896    -0.137369
H     -1.127374     0.405862     1.065468
H      0.773120    -0.266380    -1.191198
H      0.625330    -1.427434     0.078646
H      1.572466     1.153634     0.259453
9
Iteration 1, Energy=-154.0888772477, |grad|=0.029111
C     -0.948596     0.070133     0.045122
C      0.507129    -0.376391    -0.142600
O      1.434942     0.312005     0.656881
H     -1.198157     0.885832    -0.640025
H     -1.641186    -0.756978    -0.140022
H     -1.125608     0.405964     1.065576
H      0.773326    -0.266712    -1.191610
H      0.623909    -1.428559     0.083334
H      1.574243     1.154707     0.263342
9
Iteration 2, Energy=-154.0891280558, |grad|=0.022643
C     -0.948946     0.070064     0.045688
C      0.506236    -0.378391    -0.146253
O      1.430495     0.311787     0.655353
H     -1.198826     0.885229    -0.637058
H     -1.638769    -0.755142    -0.143065
H     -1.123824     0.406415     1.067147
H      0.774410    -0.267523    -1.195487
H      0.622969    -1.431778     0.088349
H      1.576254     1.159340     0.265325
9
Iteration 3, Energy=-154.0894747069, |grad|=0.021548
C     -0.943929     0.068442     0.047845
C      0.500733    -0.384320    -0.154709
O      1.416960     0.318837     0.646335
H     -1.202349     0.886392    -0.627518
H     -1.633449    -0.751155    -0.155313
H     -1.116082     0.406844     1.072902
H      0.778131    -0.272747    -1.211313
H      0.618842    -1.440582     0.105704
H      1.581143     1.168288     0.276066
9
Iteration 4, Energy=-154.0896330144, |grad|=0.022681
C     -0.942818     0.068013     0.047580
C      0.504162    -0.383720    -0.157873
O      1.413663     0.316038     0.646881
H     -1.203659     0.890496    -0.623342
H     -1.634653    -0.751633    -0.161489
H     -1.109732     0.403155     1.073701
H      0.776502    -0.280976    -1.213909
H      0.616069    -1.436473     0.111310
H      1.580465     1.175100     0.277140
9
Iteration 5, Energy=-154.0897553893, |grad|=0.019449
C     -0.942362     0.067299     0.045781
C      0.504944    -0.382204    -0.157879
O      1.414554     0.317023     0.646972
H     -1.204097     0.893510    -0.621046
H     -1.635766    -0.751842    -0.164543
H     -1.105815     0.400012     1.074002
H      0.775377    -0.286647    -1.214839
H      0.614661    -1.433104     0.113472
H      1.578504     1.175953     0.278081
9
Iteration 6, Energy=-154.0901493403, |grad|=0.016866
C     -0.941479     0.068820     0.039072
C      0.502223    -0.377524    -0.159425
O      1.417662     0.324268     0.642152
H     -1.206115     0.912434    -0.602966
H     -1.637762    -0.748736    -0.186568
H     -1.080330     0.375037     1.073147
H      0.772936    -0.322593    -1.223766
H      0.606553    -1.419131     0.133288
H      1.566312     1.187425     0.285065
9
Iteration 7, Energy=-154.0902211943, |grad|=0.033441
C     -0.939605     0.065266     0.027228
C      0.504024    -0.377274    -0.165343
O      1.416985     0.330017     0.630420
H     -1.206580     0.930658    -0.589095
H     -1.634940    -0.739744    -0.202913
H     -1.067320     0.355369     1.082507
H      0.772815    -0.347950    -1.223948
H      0.600206    -1.414681     0.151980
H      1.554415     1.198340     0.289163
9
Iteration 8, Energy=-154.0904069977, |grad|=0.015662
C     -0.939061     0.069320     0.031126
C      0.502777    -0.379818    -0.164173
O      1.417778     0.330300     0.629276
H     -1.205657     0.930547    -0.588709
H     -1.635190    -0.739849    -0.203506
H     -1.068679     0.353361     1.080043
H      0.774302    -0.347342    -1.224364
H      0.600550    -1.415634     0.152176
H      1.553180     1.199114     0.288131
9
Iteration 9, Energy=-154.0905782501, |grad|=0.012873
C     -0.937689     0.074010     0.033112
C      0.501662    -0.383362    -0.163656
O      1.420252     0.331854     0.622505
H     -1.203023     0.937797    -0.583357
H     -1.634090    -0.735246    -0.209820
H     -1.068669     0.342095     1.080049
H      0.777341    -0.354863    -1.223652
H      0.599270    -1.416961     0.158944
H      1.544947     1.204676     0.285875
9
Iteration 10, Energy=-154.0908265670, |grad|=0.020408
C     -0.934194     0.080738     0.033281
C      0.501381    -0.389058    -0.162965
O      1.426758     0.335471     0.607295
H     -1.196058     0.956041    -0.569519
H     -1.631859    -0.723515    -0.225767
H     -1.068672     0.316460     1.083936
H      0.783035    -0.374603    -1.221909
H      0.595572    -1.418869     0.175534
H      1.524037     1.217336     0.280114
9
Iteration 1, Energy=-154.0819261907, |grad|=0.178813
C     -0.934188     0.080775     0.032809
C      0.501750    -0.389066    -0.162961
O      1.376978     0.335493     0.637673
H     -1.257013     0.833975    -0.633223
H     -1.631846    -0.762570    -0.078241
H     -1.065042     0.496439     1.083948
H      0.783040    -0.240609    -1.221202
H      0.592130    -1.420822     0.055970
H      1.732490     1.147825     0.288982
9
Iteration 2, Energy=-154.0811130786, |grad|=0.191546
C     -0.930895     0.082551     0.033070
C      0.502080    -0.393655    -0.163057
O      1.376978     0.337373     0.637673
H     -1.257013     0.833975    -0.633223
H     -1.633742    -0.762570    -0.078241
H     -1.061896     0.496439     1.090087
H      0.785112    -0.240609    -1.222767
H      0.589086    -1.422206     0.055970
H      1.732490     1.147825     0.288982
9
Iteration -1, Energy=-154.0908265670, |grad|=0.020408
C     -0.934194     0.080738     0.033281
C      0.501381    -0.389058    -0.162965
O      1.426758     0.335471     0.607295
H     -1.196058     0.956041    -0.569519
H     -1.631859    -0.723515    -0.225767
H     -1.068672     0.316460     1.083936
H      0.783035    -0.374603    -1.221909
H      0.595572    -1.418869     0.175534
H      1.524037     1.217336     0.280114
9
Iteration 1, Energy=-154.0909178847, |grad|=0.011835
C     -0.934171     0.076966     0.031261
C      0.503043    -0.387068    -0.163264
O      1.427611     0.335475     0.607505
H     -1.194253     0.956317    -0.568380
H     -1.631559    -0.721811    -0.226566
H     -1.070755     0.317717     1.086728
H      0.782412    -0.374813    -1.222092
H      0.595472    -1.419550     0.176015
H      1.522202     1.216766     0.278792
9
Iteration 2, Energy=-154.0909785215, |grad|=0.011967
C     -0.933327     0.075415     0.031811
C      0.504876    -0.387035    -0.162997
O      1.428709     0.335829     0.607565
H     -1.191561     0.956204    -0.566614
H     -1.632172    -0.720965    -0.228415
H     -1.073497     0.318622     1.088109
H      0.781835    -0.374926    -1.222656
H      0.595473    -1.419416     0.176255
H      1.519664     1.216272     0.276942
9
Iteration 3, Energy=-154.0911641188, |grad|=0.016169
C     -0.929643     0.071125     0.037429
C      0.509830    -0.387963    -0.160611
O      1.433878     0.335900     0.606617
H     -1.177144     0.955812    -0.557646
H     -1.634261    -0.716662    -0.238100
H     -1.086614     0.320884     1.091865
H      0.779470    -0.375406    -1.224490
H      0.597288    -1.420393     0.177869
H      1.507196     1.216703     0.267066
9
Iteration 4, Energy=-154.0912354207, |grad|=0.020227
C     -0.928613     0.069895     0.040098
C      0.511241    -0.391178    -0.158640
O      1.436889     0.340052     0.602897
H     -1.167937     0.956657    -0.552390
H     -1.634272    -0.713364    -0.243945
H     -1.094075     0.320595     1.094048
H      0.777644    -0.375738    -1.223738
H      0.599485    -1.421546     0.178900
H      1.499638     1.214626     0.262771
9
Iteration 5, Energy=-154.0913322199, |grad|=0.014200
C     -0.927208     0.069766     0.044050
C      0.511917    -0.393587    -0.156401
O      1.439081     0.340000     0.599975
H     -1.158654     0.957909    -0.547377
H     -1.634413    -0.710412    -0.250016
H     -1.101176     0.319436     1.095136
H      0.775808    -0.376277    -1.222706
H      0.602285    -1.423347     0.180296
H      1.492360     1.216514     0.257043
9
Iteration 6, Energy=-154.0914907332, |grad|=0.011708
C     -0.924973     0.070535     0.050611
C      0.510595    -0.398772    -0.151316
O      1.442418     0.341341     0.591186
H     -1.139930     0.963895    -0.538568
H     -1.633289    -0.703588    -0.262185
H     -1.113756     0.313382     1.097311
H      0.770808    -0.378658    -1.217990
H      0.609991    -1.429175     0.184290
H      1.478136     1.221040     0.246662
9
Iteration 7, Energy=-154.0916111011, |grad|=0.013729
C     -0.924415     0.072237     0.052413
C      0.509713    -0.404581    -0.146174
O      1.444307     0.343768     0.582657
H     -1.123870     0.972183    -0.531270
H     -1.631501    -0.696460    -0.272980
H     -1.122407     0.303975     1.100559
H      0.764153    -0.383452    -1.212969
H      0.617744    -1.433906     0.189191
H      1.466276     1.226236     0.238573
9
Iteration 8, Energy=-154.0917086395, |grad|=0.022609
C     -0.920609     0.072944     0.057800
C      0.506759    -0.408149    -0.141088
O      1.447303     0.351277     0.569875
H     -1.099148     0.989998    -0.520216
H     -1.630196    -0.684217    -0.292490
H     -1.132983     0.283811     1.103894
H      0.751312    -0.396427    -1.205954
H      0.630167    -1.442475     0.200984
H      1.447394     1.233238     0.227194
9
Iteration 9, Energy=-154.0918424996, |grad|=0.012038
C     -0.921343     0.074315     0.053784
C      0.507643    -0.410401    -0.138827
O      1.446493     0.353516     0.567814
H     -1.096050     0.994092    -0.516766
H     -1.629630    -0.680388    -0.296608
H     -1.131505     0.276234     1.105732
H      0.747503    -0.402621    -1.206547
H      0.631700    -1.440629     0.204939
H      1.445189     1.235883     0.226478
9
Iteration 10, Energy=-154.0919822425, |grad|=0.013877
C     -0.920829     0.074867     0.049827
C      0.509478    -0.411657    -0.138193
O      1.445823     0.358092     0.565679
H     -1.091101     1.001024    -0.509726
H     -1.630027    -0.673656    -0.305390
H     -1.128580     0.263193     1.107824
H      0.741363    -0.414960    -1.208601
H      0.632925    -1.436613     0.213382
H      1.440947     1.239711     0.225198
9
Iteration 1, Energy=-154.0766962015, |grad|=0.233651
C     -0.920785     0.074868     0.055062
C      0.511944    -0.414601    -0.135708
O      1.376978     0.358102     0.637673
H     -1.257013     0.833975    -0.633223
H     -1.632921    -0.762570    -0.078241
H     -1.142850     0.496439     1.111163
H      0.741342    -0.240609    -1.208912
H      0.632934    -1.436615     0.055970
H      1.732490     1.147825     0.288982
9
Iteration 2, Energy=-154.0753938452, |grad|=0.247345
C     -0.917826     0.075990     0.058757
C      0.513419    -0.420798    -0.131021
O      1.376978     0.360634     0.637673
H     -1.257013     0.833975    -0.633223
H     -1.634502    -0.762570    -0.078241
H     -1.152905     0.496439     1.111163
H      0.737645    -0.240609    -1.205460
H      0.637499    -1.441044     0.055970
H      1.732490     1.147825     0.288982
9
Iteration -1, Energy=-154.0919822425, |grad|=0.013877
C     -0.920829     0.074867     0.049827
C      0.509478    -0.411657    -0.138193
O      1.445823     0.358092     0.565679
H     -1.091101     1.001024    -0.509726
H     -1.630027    -0.673656    -0.305390
H     -1.128580     0.263193     1.107824
H      0.741363    -0.414960    -1.208601
H      0.632925    -1.436613     0.213382
H      1.440947     1.239711     0.225198
9
Iteration 1, Energy=-154.0920333993, |grad|=0.009899
C     -0.919411     0.074333     0.052653
C      0.509087    -0.410355    -0.140369
O      1.445903     0.357812     0.566007
H     -1.091658     1.000705    -0.508310
H     -1.631076    -0.673655    -0.307148
H     -1.127875     0.262854     1.106483
H      0.742503    -0.416338    -1.209385
H      0.631665    -1.435592     0.214959
H      1.440861     1.240237     0.225110
9
Iteration 2, Energy=-154.0920788366, |grad|=0.009897
C     -0.918654     0.073367     0.053408
C      0.509194    -0.409742    -0.141769
O      1.445839     0.358244     0.565664
H     -1.092446     0.999877    -0.505596
H     -1.631788    -0.672848    -0.309259
H     -1.126880     0.262401     1.106289
H      0.744235    -0.418332    -1.211088
H      0.629644    -1.433405     0.216988
H      1.440855     1.240438     0.225363
9
Iteration 3, Energy=-154.0921574833, |grad|=0.018126
C     -0.918414     0.069794     0.052278
C      0.511251    -0.407308    -0.147038
O      1.445036     0.357345     0.563617
H     -1.096076     0.998919    -0.494494
H     -1.633386    -0.668860    -0.317434
H     -1.122152     0.258686     1.107831
H      0.751122    -0.427218    -1.216190
H      0.621740    -1.426017     0.226093
H      1.440879     1.244659     0.225336
9
Iteration 4, Energy=-154.0922007818, |grad|=0.014776
C     -0.917883     0.069338     0.051547
C      0.510917    -0.408409    -0.148729
O      1.445259     0.362620     0.560084
H     -1.098779     1.000658    -0.488343
H     -1.634479    -0.667142    -0.322640
H     -1.118719     0.254502     1.108480
H      0.755430    -0.432999    -1.218811
H      0.617254    -1.422058     0.231435
H      1.440999     1.243489     0.226976
9
Iteration 5, Energy=-154.0922345980, |grad|=0.007886
C     -0.918457     0.070166     0.050677
C      0.510790    -0.408664    -0.147536
O      1.445267     0.361451     0.560213
H     -1.098522     1.001953    -0.489751
H     -1.633953    -0.667498    -0.321607
H     -1.119003     0.253892     1.108668
H      0.754539    -0.432339    -1.217621
H      0.618445    -1.423525     0.230610
H      1.440893     1.244563     0.226347
9
Iteration 6, Energy=-154.0922776299, |grad|=0.006234
C     -0.919253     0.071511     0.048811
C      0.510447    -0.409030    -0.146817
O      1.445448     0.361374     0.558587
H     -1.099701     1.006065    -0.488560
H     -1.633516    -0.666928    -0.323002
H     -1.117339     0.249458     1.109136
H      0.755358    -0.435103    -1.216411
H      0.618042    -1.424293     0.232727
H      1.440514     1.246945     0.225529
9
Iteration 7, Energy=-154.0923273648, |grad|=0.008123
C     -0.919849     0.073487     0.046275
C      0.509944    -0.409294    -0.147123
O      1.446005     0.362981     0.554898
H     -1.102507     1.013522    -0.483380
H     -1.633213    -0.664742    -0.327958
H     -1.113379     0.239714     1.109471
H      0.758258    -0.442808    -1.215213
H      0.615357    -1.423538     0.238862
H      1.439384     1.250679     0.224168
9
Iteration 8, Energy=-154.0923785156, |grad|=0.006962
C     -0.918633     0.075328     0.044620
C      0.510106    -0.408844    -0.147056
O      1.447021     0.365850     0.551117
H     -1.103785     1.021226    -0.475347
H     -1.632227    -0.660063    -0.334930
H     -1.110922     0.227010     1.108790
H      0.760160    -0.453199    -1.213946
H      0.612273    -1.420629     0.246001
H      1.436007     1.253322     0.220751
9
Iteration 9, Energy=-154.0924287107, |grad|=0.014573
C     -0.916978     0.078369     0.043667
C      0.510849    -0.410558    -0.149636
O      1.449526     0.372458     0.544669
H     -1.099041     1.033440    -0.459488
H     -1.629227    -0.650919    -0.350978
H     -1.113233     0.206488     1.111798
H      0.760673    -0.469124    -1.210922
H      0.609661    -1.418047     0.259768
H      1.427769     1.257892     0.211122
9
Iteration 10, Energy=-154.0924991628, |grad|=0.007682
C     -0.914373     0.078600     0.045372
C      0.511631    -0.410843    -0.146734
O      1.450265     0.376978     0.538726
H     -1.094282     1.041418    -0.447012
H     -1.627145    -0.643089    -0.363583
H     -1.115989     0.191951     1.112160
H      0.761044    -0.480849    -1.211533
H      0.607728    -1.414270     0.269082
H      1.421122     1.260105     0.203521
9
Iteration 1, Energy=-154.0721830336, |grad|=0.318939
C     -0.914361     0.078608     0.045376
C      0.511727    -0.421539    -0.146741
O      1.376978     0.377003     0.637673
H     -1.257013     0.833975    -0.633223
H     -1.627134    -0.762570    -0.078241
H     -1.116008     0.496439     1.111163
H      0.761130    -0.240609    -1.211525
H      0.607713    -1.414246     0.055970
H      1.732490     1.147825     0.288982
9
Iteration 2, Energy=-154.0712148387, |grad|=0.332014
C     -0.912437     0.078972     0.046542
C      0.514533    -0.421539    -0.146628
O      1.376978     0.381874     0.637673
H     -1.257013     0.833975    -0.633223
H     -1.627370    -0.762570    -0.078241
H     -1.120481     0.496439     1.111163
H      0.764567    -0.240609    -1.210448
H      0.604303    -1.412226     0.055970
H      1.732490     1.147825     0.288982
9
Iteration -1, Energy=-154.0924991628, |grad|=0.007682
C     -0.914373     0.078600     0.045372
C      0.511631    -0.410843    -0.146734
O      1.450265     0.376978     0.538726
H     -1.094282     1.041418    -0.447012
H     -1.627145    -0.643089    -0.363583
H     -1.115989     0.191951     1.112160
H      0.761044    -0.480849    -1.211533
H      0.607728    -1.414270     0.269082
H      1.421122     1.260105     0.203521
9
Iteration 1, Energy=-154.0925150130, |grad|=0.005911
C     -0.914838     0.077703     0.045248
C      0.511900    -0.410702    -0.145203
O      1.449771     0.376112     0.537979
H     -1.093076     1.040632    -0.446227
H     -1.626950    -0.642442    -0.364050
H     -1.116778     0.192547     1.112132
H      0.760735    -0.480342    -1.211807
H      0.608223    -1.414095     0.268967
H      1.421012     1.260588     0.202961
9
Iteration 2, Energy=-154.0925310374, |grad|=0.006234
C     -0.915021     0.076664     0.045756
C      0.511826    -0.410829    -0.144323
O      1.449533     0.376211     0.537034
H     -1.091109     1.039529    -0.445095
H     -1.626988    -0.641801    -0.365064
H     -1.118184     0.193436     1.111971
H      0.760031    -0.479518    -1.211586
H      0.609102    -1.414101     0.268965
H      1.420811     1.260410     0.202342
9
Iteration 3, Energy=-154.0925685975, |grad|=0.009837
C     -0.914785     0.072989     0.048642
C      0.511065    -0.411892    -0.142800
O      1.449656     0.375788     0.534963
H     -1.082232     1.035746    -0.440726
H     -1.627970    -0.639877    -0.370090
H     -1.125029     0.196843     1.112007
H      0.756202    -0.476004    -1.209840
H      0.613546    -1.414921     0.269396
H      1.419546     1.261326     0.198447
9
Iteration 4, Energy=-154.0925827203, |grad|=0.011534
C     -0.915278     0.070753     0.050305
C      0.511271    -0.414312    -0.140130
O      1.450307     0.379387     0.533183
H     -1.074917     1.034980    -0.438420
H     -1.628748    -0.638439    -0.374077
H     -1.131181     0.198129     1.113455
H      0.752387    -0.473627    -1.209643
H      0.617779    -1.416306     0.269596
H      1.418380     1.259435     0.195732
9
Iteration 5, Energy=-154.0925998518, |grad|=0.004776
C     -0.915070     0.071586     0.050514
C      0.511373    -0.413779    -0.141134
O      1.450443     0.378642     0.534105
H     -1.075806     1.035828    -0.439157
H     -1.628796    -0.638809    -0.373643
H     -1.130610     0.197305     1.113364
H      0.752520    -0.474200    -1.209437
H      0.617604    -1.416736     0.269806
H      1.418342     1.260164     0.195582
9
Iteration 6, Energy=-154.0926096299, |grad|=0.003212
C     -0.915005     0.072117     0.051067
C      0.511611    -0.413976    -0.141141
O      1.450732     0.378826     0.534716
H     -1.074575     1.036907    -0.439436
H     -1.628962    -0.638650    -0.374275
H     -1.131942     0.196278     1.113824
H      0.751371    -0.474323    -1.209217
H      0.618897    -1.417717     0.270096
H      1.417873     1.260538     0.194367
9
Iteration 7, Energy=-154.0926183714, |grad|=0.003698
C     -0.915008     0.072520     0.051759
C      0.511834    -0.414529    -0.140208
O      1.450868     0.379500     0.534937
H     -1.071889     1.038179    -0.439291
H     -1.628929    -0.637754    -0.375519
H     -1.134594     0.194679     1.114441
H      0.749322    -0.474354    -1.208826
H      0.621309    -1.418936     0.270428
H      1.417087     1.260695     0.192278
9
Iteration 8, Energy=-154.0926293456, |grad|=0.003143
C     -0.914654     0.073054     0.052458
C      0.511598    -0.415149    -0.138664
O      1.450346     0.380537     0.534474
H     -1.068332     1.039762    -0.438235
H     -1.628094    -0.635279    -0.377173
H     -1.138121     0.191257     1.114523
H      0.746672    -0.475197    -1.207477
H      0.624557    -1.419596     0.270953
H      1.416028     1.260612     0.189141
9
Iteration 9, Energy=-154.0926403695, |grad|=0.004478
C     -0.913975     0.073409     0.053036
C      0.511797    -0.415193    -0.136178
O      1.449931     0.382536     0.533367
H     -1.063853     1.041891    -0.434193
H     -1.627946    -0.631976    -0.381922
H     -1.142261     0.185940     1.115432
H      0.744444    -0.477788    -1.206926
H      0.627158    -1.419583     0.273245
H      1.414705     1.260763     0.184139
9
Iteration 10, Energy=-154.0926552716, |grad|=0.004337
C     -0.914197     0.072809     0.053911
C      0.512197    -0.415961    -0.134290
O      1.449377     0.385228     0.531672
H     -1.059148     1.045085    -0.428308
H     -1.626902    -0.626908    -0.387979
H     -1.146461     0.178629     1.115896
H      0.742495    -0.481741    -1.205428
H      0.629287    -1.418378     0.276647
H      1.413352     1.261237     0.177880
9
Iteration 1, Energy=-154.0739971809, |grad|=0.281397
C     -0.914193     0.072800     0.093862
C      0.513192    -0.415980    -0.134250
O      1.376978     0.385290     0.637673
H     -1.257013     0.833975    -0.633223
H     -1.626786    -0.762570    -0.078241
H     -1.147457     0.496439     1.111163
H      0.741887    -0.240609    -1.176596
H      0.629360    -1.418344     0.055970
H      1.732490     1.147825     0.288982
9
Iteration 2, Energy=-154.0719513998, |grad|=0.291402
C     -0.914013     0.073080     0.094001
C      0.513230    -0.417484    -0.133508
O      1.371129     0.386987     0.644168
H     -1.267907     0.819528    -0.644850
H     -1.626383    -0.769930    -0.058693
H     -1.149473     0.516924     1.111163
H      0.740874    -0.223587    -1.175494
H      0.630394    -1.418241     0.041120
H      1.756969     1.139544     0.292786
9
Iteration -1, Energy=-154.0926552716, |grad|=0.004337
C     -0.914197     0.072809     0.053911
C      0.512197    -0.415961    -0.134290
O      1.449377     0.385228     0.531672
H     -1.059148     1.045085    -0.428308
H     -1.626902    -0.626908    -0.387979
H     -1.146461     0.178629     1.115896
H      0.742495    -0.481741    -1.205428
H      0.629287    -1.418378     0.276647
H      1.413352     1.261237     0.177880
9
Iteration 1, Energy=-154.0926590535, |grad|=0.002692
C     -0.914057     0.072775     0.054139
C      0.511899    -0.416051    -0.135002
O      1.449498     0.385304     0.531590
H     -1.059277     1.045077    -0.427931
H     -1.626996    -0.626998    -0.388309
H     -1.146312     0.178634     1.115749
H      0.742730    -0.481758    -1.205070
H      0.629062    -1.418391     0.276994
H      1.413453     1.261406     0.177840
9
Iteration 2, Energy=-154.0926633112, |grad|=0.002792
C     -0.914007     0.072548     0.054157
C      0.511491    -0.416270    -0.135659
O      1.449563     0.385378     0.531094
H     -1.059615     1.045078    -0.426930
H     -1.627089    -0.627043    -0.389023
H     -1.145913     0.178599     1.115613
H      0.743406    -0.481848    -1.204736
H      0.628434    -1.418229     0.277723
H      1.413730     1.261788     0.177760
9
Iteration 3, Energy=-154.0926693909, |grad|=0.003090
C     -0.914204     0.071994     0.053959
C      0.511116    -0.416404    -0.136243
O      1.449551     0.385542     0.529893
H     -1.060385     1.045273    -0.424794
H     -1.627242    -0.627017    -0.390521
H     -1.145012     0.178289     1.115429
H      0.744885    -0.482266    -1.204532
H      0.627002    -1.417829     0.279259
H      1.414289     1.262418     0.177549
9
Iteration 4, Energy=-154.0926763345, |grad|=0.003154
C     -0.914472     0.071883     0.053119
C      0.511246    -0.416509    -0.136577
O      1.450023     0.385967     0.529079
H     -1.061817     1.046340    -0.421681
H     -1.627564    -0.626828    -0.392828
H     -1.143789     0.176468     1.115627
H      0.746822    -0.483954    -1.204796
H      0.624735    -1.416614     0.281501
H      1.414818     1.263246     0.176556
9
Iteration 5, Energy=-154.0926787011, |grad|=0.005577
C     -0.915056     0.071052     0.052616
C      0.511796    -0.415148    -0.136931
O      1.450206     0.387560     0.527202
H     -1.064179     1.049054    -0.417191
H     -1.627499    -0.625715    -0.396229
H     -1.141948     0.172448     1.115274
H      0.749688    -0.487359    -1.205063
H      0.621366    -1.415110     0.285262
H      1.415627     1.263219     0.175060
9
Iteration 6, Energy=-154.0926844205, |grad|=0.002110
C     -0.914833     0.071863     0.052363
C      0.511942    -0.415366    -0.136555
O      1.450184     0.386977     0.527893
H     -1.064006     1.049031    -0.417646
H     -1.627370    -0.625575    -0.395856
H     -1.142343     0.171905     1.115467
H      0.749164    -0.487581    -1.205077
H      0.621856    -1.414863     0.284796
H      1.415406     1.263608     0.174614
9
Iteration 7, Energy=-154.0926865371, |grad|=0.001826
C     -0.914636     0.072428     0.052195
C      0.511991    -0.415415    -0.136340
O      1.450165     0.387150     0.528191
H     -1.064038     1.049420    -0.417707
H     -1.627118    -0.625183    -0.395805
H     -1.142622     0.170845     1.115550
H      0.748879    -0.488181    -1.204993
H      0.622077    -1.414552     0.284737
H      1.415303     1.263488     0.174173
9
Iteration 8, Energy=-154.0926894592, |grad|=0.002469
C     -0.914355     0.073125     0.051976
C      0.511965    -0.415015    -0.136186
O      1.449950     0.387564     0.528094
H     -1.064548     1.051018    -0.416441
H     -1.626376    -0.623820    -0.396821
H     -1.142894     0.167453     1.115492
H      0.749039    -0.490269    -1.204551
H      0.621807    -1.413736     0.285869
H      1.415411     1.263680     0.172568
9
Iteration 9, Energy=-154.0926914202, |grad|=0.003520
C     -0.914082     0.074108     0.051929
C      0.511614    -0.415391    -0.136018
O      1.449619     0.389023     0.527152
H     -1.064683     1.052551    -0.414094
H     -1.625617    -0.622250    -0.398901
H     -1.143537     0.163581     1.115475
H      0.749305    -0.492405    -1.203787
H      0.621528    -1.412842     0.287583
H      1.415852     1.263626     0.170660
9
Iteration 10, Energy=-154.0926935223, |grad|=0.001945
C     -0.914141     0.073772     0.052021
C      0.511500    -0.415171    -0.136090
O      1.449564     0.389072     0.526855
H     -1.064602     1.052961    -0.413383
H     -1.625471    -0.621863    -0.399581
H     -1.143701     0.162946     1.115473
H      0.749440    -0.492762    -1.203592
H      0.621416    -1.412860     0.288197
H      1.415994     1.263905     0.170099
9
Iteration 1, Energy=-154.0719001171, |grad|=0.320883
C     -0.914132     0.073791     0.055784
C      0.511508    -0.415028    -0.136202
O      1.376978     0.389389     0.637673
H     -1.257013     0.833975    -0.633223
H     -1.625390    -0.762570    -0.078241
H     -1.143929     0.496439     1.111163
H      0.750242    -0.240609    -1.200177
H      0.620486    -1.412691     0.055970
H      1.732490     1.147825     0.288982
9
Iteration 2, Energy=-154.0701442944, |grad|=0.326252
C     -0.914080     0.073911     0.058686
C      0.511592    -0.415109    -0.135788
O      1.371720     0.390119     0.644682
H     -1.270410     0.820058    -0.646012
H     -1.625126    -0.771045    -0.057922
H     -1.144850     0.516737     1.110953
H      0.750044    -0.224718    -1.197744
H      0.620687    -1.412341     0.041490
H      1.755120     1.139961     0.295181
9
Iteration -1, Energy=-154.0926935223, |grad|=0.001945
C     -0.914141     0.073772     0.052021
C      0.511500    -0.415171    -0.136090
O      1.449564     0.389072     0.526855
H     -1.064602     1.052961    -0.413383
H     -1.625471    -0.621863    -0.399581
H     -1.143701     0.162946     1.115473
H      0.749440    -0.492762    -1.203592
H      0.621416    -1.412860     0.288197
H      1.415994     1.263905     0.170099
9
Iteration 1, Energy=-154.0926946483, |grad|=0.002538
C     -0.914337     0.073190     0.052215
C      0.511651    -0.414880    -0.135962
O      1.449653     0.388789     0.526882
H     -1.064153     1.053030    -0.413136
H     -1.625596    -0.621818    -0.400016
H     -1.144036     0.163163     1.115574
H      0.749261    -0.492598    -1.203661
H      0.621569    -1.413121     0.288403
H      1.415988     1.264245     0.169701
9
Iteration 2, Energy=-154.0926958440, |grad|=0.001864
C     -0.914416     0.073021     0.052314
C      0.511692    -0.414980    -0.135854
O      1.449738     0.389008     0.526786
H     -1.063819     1.052967    -0.412899
H     -1.625711    -0.621827    -0.400355
H     -1.144302     0.163285     1.115652
H      0.749120    -0.492460    -1.203680
H      0.621686    -1.413193     0.288490
H      1.416013     1.264179     0.169546
9
Iteration 3, Energy=-154.0926992149, |grad|=0.001475
C     -0.914756     0.072261     0.052859
C      0.511853    -0.415605    -0.135260
O      1.450125     0.389767     0.526351
H     -1.061782     1.052488    -0.411430
H     -1.626317    -0.621792    -0.402329
H     -1.145986     0.163854     1.116064
H      0.748215    -0.491660    -1.203601
H      0.622515    -1.413543     0.288992
H      1.416135     1.264231     0.168355
9
Iteration 4, Energy=-154.0927007903, |grad|=0.001633
C     -0.914769     0.071824     0.053164
C      0.511656    -0.415737    -0.134972
O      1.450047     0.390073     0.526016
H     -1.060667     1.052397    -0.410730
H     -1.626236    -0.621319    -0.403113
H     -1.147083     0.163681     1.116056
H      0.747606    -0.491382    -1.203213
H      0.623255    -1.413704     0.289248
H      1.416191     1.264168     0.167544
9
Iteration 5, Energy=-154.0927034168, |grad|=0.002212
C     -0.914752     0.071492     0.054072
C      0.511404    -0.416455    -0.133509
O      1.449536     0.390592     0.525239
H     -1.057343     1.052289    -0.408684
H     -1.625911    -0.619789    -0.405430
H     -1.150577     0.162349     1.116015
H      0.745647    -0.490885    -1.202215
H      0.625698    -1.413877     0.289886
H      1.416297     1.264284     0.164627
9
Iteration 6, Energy=-154.0927052431, |grad|=0.001542
C     -0.914631     0.071391     0.054383
C      0.511256    -0.416253    -0.133464
O      1.449511     0.391143     0.525373
H     -1.056318     1.052969    -0.408207
H     -1.625600    -0.618964    -0.406154
H     -1.151987     0.161063     1.116171
H      0.744819    -0.491210    -1.201710
H      0.626707    -1.414171     0.290322
H      1.416242     1.264032     0.163286
9
Iteration 7, Energy=-154.0927062609, |grad|=0.001185
C     -0.914620     0.071594     0.054392
C      0.511363    -0.416196    -0.133207
O      1.449441     0.391332     0.525535
H     -1.056261     1.053526    -0.408171
H     -1.625398    -0.618591    -0.406278
H     -1.152324     0.160157     1.116261
H      0.744657    -0.491647    -1.201725
H      0.626929    -1.414105     0.290445
H      1.416213     1.263931     0.162749
9
Iteration 8, Energy=-154.0927075698, |grad|=0.001337
C     -0.914570     0.072221     0.054582
C      0.511623    -0.416127    -0.132880
O      1.449337     0.391828     0.525729
H     -1.056029     1.054493    -0.407454
H     -1.625220    -0.617899    -0.407177
H     -1.153070     0.158154     1.116410
H      0.744430    -0.492624    -1.201553
H      0.627222    -1.413926     0.291019
H      1.416277     1.263880     0.161325
9
Iteration 9, Energy=-154.0927090614, |grad|=0.001678
C     -0.914672     0.072194     0.054500
C      0.511689    -0.416221    -0.132186
O      1.449281     0.392599     0.525568
H     -1.055480     1.055566    -0.405901
H     -1.624942    -0.616795    -0.408749
H     -1.154135     0.155941     1.116747
H      0.744268    -0.493649    -1.201315
H      0.627458    -1.413558     0.291957
H      1.416532     1.263922     0.159380
9
Iteration 10, Energy=-154.0927116080, |grad|=0.002122
C     -0.914843     0.072113     0.054757
C      0.511789    -0.416267    -0.131461
O      1.449146     0.393795     0.525036
H     -1.054699     1.056990    -0.403062
H     -1.624718    -0.615256    -0.411572
H     -1.155539     0.152713     1.116952
H      0.744268    -0.495171    -1.200752
H      0.627525    -1.412991     0.293676
H      1.417070     1.264074     0.156426
9
Iteration 1, Energy=-154.0640195954, |grad|=0.428902
C     -0.917510     0.072114     0.054820
C      0.511791    -0.421138    -0.117428
O      1.376978     0.418691     0.637673
H     -1.257013     0.833975    -0.633223
H     -1.624707    -0.762570    -0.078241
H     -1.171031     0.496439     1.111163
H      0.744182    -0.240609    -1.200692
H      0.627637    -1.412967     0.055970
H      1.732490     1.147825     0.288982
9
Iteration 2, Energy=-154.0622185039, |grad|=0.429646
C     -0.917490     0.072178     0.055214
C      0.511752    -0.421238    -0.117142
O      1.372061     0.419188     0.644871
H     -1.269303     0.819845    -0.646933
H     -1.624532    -0.771313    -0.057795
H     -1.171031     0.517463     1.110958
H      0.743956    -0.224263    -1.200161
H      0.627909    -1.412801     0.041042
H      1.753755     1.140085     0.295768
9
Iteration -1, Energy=-154.0927116080, |grad|=0.002122
C     -0.914843     0.072113     0.054757
C      0.511789    -0.416267    -0.131461
O      1.449146     0.393795     0.525036
H     -1.054699     1.056990    -0.403062
H     -1.624718    -0.615256    -0.411572
H     -1.155539     0.152713     1.116952
H      0.744268    -0.495171    -1.200752
H      0.627525    -1.412991     0.293676
H      1.417070     1.264074     0.156426
9
Iteration 1, Energy=-154.0927124134, |grad|=0.001308
C     -0.914785     0.072092     0.054835
C      0.511684    -0.416164    -0.131735
O      1.449126     0.393797     0.524940
H     -1.054716     1.056884    -0.402885
H     -1.624744    -0.615272    -0.411674
H     -1.155486     0.152757     1.116841
H      0.744336    -0.495147    -1.200574
H      0.627462    -1.413034     0.293814
H      1.417123     1.264086     0.156436
9
Iteration 2, Energy=-154.0927133123, |grad|=0.001082
C     -0.914737     0.071952     0.054838
C      0.511477    -0.416110    -0.132009
O      1.449042     0.393763     0.524627
H     -1.054787     1.056652    -0.402385
H     -1.624765    -0.615257    -0.411926
H     -1.155327     0.152865     1.116646
H      0.744570    -0.495085    -1.200336
H      0.627239    -1.412956     0.294098
H      1.417288     1.264175     0.156447
9
Iteration 3, Energy=-154.0927140173, |grad|=0.000873
C     -0.914790     0.071661     0.054760
C      0.511329    -0.416138    -0.132100
O      1.448977     0.393746     0.524246
H     -1.054929     1.056512    -0.401725
H     -1.624804    -0.615235    -0.412303
H     -1.155093     0.152948     1.116490
H      0.744923    -0.495062    -1.200249
H      0.626865    -1.412751     0.294470
H      1.417521     1.264319     0.156412
9
Iteration 4, Energy=-154.0927146435, |grad|=0.000939
C     -0.914915     0.071566     0.054530
C      0.511385    -0.416159    -0.132235
O      1.449097     0.393878     0.524028
H     -1.055245     1.056606    -0.400788
H     -1.625028    -0.615356    -0.413016
H     -1.154780     0.152713     1.116555
H      0.745413    -0.495297    -1.200362
H      0.626236    -1.412462     0.295124
H      1.417837     1.264511     0.156164
9
Iteration 5, Energy=-154.0927148765, |grad|=0.001450
C     -0.915176     0.071030     0.054496
C      0.511452    -0.415979    -0.132276
O      1.449185     0.394124     0.523769
H     -1.055737     1.057216    -0.399875
H     -1.625057    -0.615209    -0.413744
H     -1.154407     0.152083     1.116461
H      0.745999    -0.495791    -1.200512
H      0.625506    -1.412079     0.295906
H      1.418235     1.264604     0.155775
9
Iteration 6, Energy=-154.0927153079, |grad|=0.000673
C     -0.915113     0.071343     0.054407
C      0.511495    -0.416031    -0.132217
O      1.449180     0.394119     0.523886
H     -1.055751     1.057229    -0.399938
H     -1.625049    -0.615204    -0.413704
H     -1.154481     0.151874     1.116548
H      0.745930    -0.495892    -1.200513
H      0.625580    -1.412046     0.295844
H      1.418210     1.264609     0.155686
9
Iteration 7, Energy=-154.0927156522, |grad|=0.000626
C     -0.915073     0.071621     0.054300
C      0.511523    -0.416001    -0.132178
O      1.449162     0.394223     0.523953
H     -1.055923     1.057465    -0.399780
H     -1.624976    -0.615072    -0.413826
H     -1.154510     0.151293     1.116602
H      0.745983    -0.496222    -1.200478
H      0.625512    -1.411896     0.295984
H      1.418301     1.264589     0.155424
9
Iteration 8, Energy=-154.0927160959, |grad|=0.000817
C     -0.915041     0.071912     0.054161
C      0.511511    -0.415859    -0.132162
O      1.449081     0.394411     0.523920
H     -1.056332     1.058003    -0.399170
H     -1.624791    -0.614709    -0.414273
H     -1.154498     0.150063     1.116583
H      0.746237    -0.496926    -1.200328
H      0.625221    -1.411528     0.296477
H      1.418611     1.264633     0.154792
9
Iteration 9, Energy=-154.0927162632, |grad|=0.001076
C     -0.915026     0.072020     0.054100
C      0.511452    -0.415821    -0.132145
O      1.449034     0.394733     0.523782
H     -1.056521     1.058295    -0.398698
H     -1.624668    -0.614448    -0.414638
H     -1.154554     0.149330     1.116564
H      0.746384    -0.497317    -1.200194
H      0.625053    -1.411316     0.296812
H      1.418847     1.264523     0.154417
9
Iteration 10, Energy=-154.0927165210, |grad|=0.000591
C     -0.915036     0.072044     0.054072
C      0.511399    -0.415666    -0.132154
O      1.448952     0.394866     0.523658
H     -1.056786     1.058706    -0.398060
H     -1.624509    -0.614105    -0.415127
H     -1.154584     0.148412     1.116490
H      0.746611    -0.497822    -1.200017
H      0.624802    -1.411047     0.297296
H      1.419151     1.264612     0.153843
9
Iteration 1, Energy=-154.0676660585, |grad|=0.385302
C     -0.915037     0.072048     0.054065
C      0.511389    -0.415660    -0.132158
O      1.376978     0.394883     0.637673
H     -1.257013     0.833975    -0.633223
H     -1.624500    -0.762570    -0.078241
H     -1.154588     0.496439     1.111163
H      0.746641    -0.240609    -1.199995
H      0.624767    -1.389115     0.055970
H      1.732490     1.147825     0.288982
9
Iteration 2, Energy=-154.0654259231, |grad|=0.410319
C     -0.915635     0.072020     0.055248
C      0.510761    -0.416329    -0.126713
O      1.374905     0.401876     0.637673
H     -1.257013     0.833975    -0.633223
H     -1.621790    -0.762570    -0.078241
H     -1.166767     0.496439     1.111163
H      0.744881    -0.240609    -1.195115
H      0.627428    -1.384387     0.055970
H      1.737664     1.147825     0.288982
9
Iteration -1, Energy=-154.0927165210, |grad|=0.000591
C     -0.915036     0.072044     0.054072
C      0.511399    -0.415666    -0.132154
O      1.448952     0.394866     0.523658
H     -1.056786     1.058706    -0.398060
H     -1.624509    -0.614105    -0.415127
H     -1.154584     0.148412     1.116490
H      0.746611    -0.497822    -1.200017
H      0.624802    -1.411047     0.297296
H      1.419151     1.264612     0.153843
9
Iteration 1, Energy=-154.0927166116, |grad|=0.000823
C     -0.915084     0.071845     0.054211
C      0.511408    -0.415597    -0.132145
O      1.448952     0.394785     0.523657
H     -1.056662     1.058738    -0.398005
H     -1.624499    -0.614048    -0.415241
H     -1.154704     0.148454     1.116456
H      0.746553    -0.497764    -1.199978
H      0.624867    -1.411120     0.297341
H      1.419170     1.264709     0.153703
9
Iteration 2, Energy=-154.0927167164, |grad|=0.000570
C     -0.915091     0.071827     0.054227
C      0.511402    -0.415636    -0.132109
O      1.448956     0.394849     0.523624
H     -1.056591     1.058709    -0.397950
H     -1.624507    -0.614034    -0.415309
H     -1.154779     0.148467     1.116471
H      0.746519    -0.497729    -1.199967
H      0.624904    -1.411131     0.297348
H      1.419187     1.264678     0.153664
9
Iteration 3, Energy=-154.0927170827, |grad|=0.000603
C     -0.915147     0.071644     0.054379
C      0.511379    -0.415811    -0.131880
O      1.448976     0.395101     0.523462
H     -1.056067     1.058533    -0.397565
H     -1.624548    -0.613917    -0.415801
H     -1.155338     0.148554     1.116563
H      0.746259    -0.497485    -1.199860
H      0.625189    -1.411245     0.297424
H      1.419297     1.264627     0.153278
9
Iteration 4, Energy=-154.0927172849, |grad|=0.000600
C     -0.915185     0.071512     0.054510
C      0.511368    -0.415902    -0.131699
O      1.448982     0.395220     0.523385
H     -1.055585     1.058415    -0.397230
H     -1.624569    -0.613793    -0.416229
H     -1.155876     0.148554     1.116647
H      0.745994    -0.497299    -1.199738
H      0.625488    -1.411354     0.297508
H      1.419384     1.264646     0.152847
9
Iteration 5, Energy=-154.0927174875, |grad|=0.000977
C     -0.915286     0.071182     0.054893
C      0.511355    -0.415971    -0.131328
O      1.448945     0.395545     0.523301
H     -1.054717     1.058539    -0.396735
H     -1.624483    -0.613420    -0.416928
H     -1.156935     0.148220     1.116675
H      0.745440    -0.497104    -1.199496
H      0.626143    -1.411491     0.297679
H      1.419537     1.264499     0.151939
9
Iteration 6, Energy=-154.0927177405, |grad|=0.000412
C     -0.915266     0.071317     0.054935
C      0.511354    -0.416007    -0.131088
O      1.448874     0.395588     0.523374
H     -1.054279     1.058636    -0.396433
H     -1.624409    -0.613195    -0.417267
H     -1.157561     0.147763     1.116747
H      0.745109    -0.497119    -1.199343
H      0.626562    -1.411480     0.297789
H      1.419617     1.264498     0.151285
9
Iteration 7, Energy=-154.0927178486, |grad|=0.000354
C     -0.915239     0.071422     0.054919
C      0.511347    -0.415939    -0.131094
O      1.448829     0.395610     0.523446
H     -1.054295     1.058807    -0.396423
H     -1.624340    -0.613102    -0.417251
H     -1.157638     0.147447     1.116726
H      0.745065    -0.497255    -1.199292
H      0.626637    -1.411432     0.297845
H      1.419634     1.264442     0.151123
9
Iteration 8, Energy=-154.0927179773, |grad|=0.000465
C     -0.915238     0.071513     0.054926
C      0.511342    -0.415913    -0.130987
O      1.448731     0.395713     0.523478
H     -1.054311     1.059111    -0.396241
H     -1.624226    -0.612889    -0.417390
H     -1.157790     0.146865     1.116685
H      0.745045    -0.497491    -1.199232
H      0.626699    -1.411302     0.298009
H      1.419749     1.264393     0.150753
9
Iteration 9, Energy=-154.0927181819, |grad|=0.000721
C     -0.915220     0.071638     0.054948
C      0.511277    -0.415776    -0.130963
O      1.448593     0.396091     0.523466
H     -1.054216     1.059593    -0.395548
H     -1.624082    -0.612443    -0.418004
H     -1.158238     0.145706     1.116687
H      0.744999    -0.497928    -1.198958
H      0.626803    -1.411172     0.298535
H      1.420084     1.264291     0.149838
9
Iteration 10, Energy=-154.0927184748, |grad|=0.000614
C     -0.915282     0.071617     0.054979
C      0.511254    -0.415772    -0.130776
O      1.448473     0.396429     0.523357
H     -1.054121     1.059974    -0.394758
H     -1.623988    -0.612031    -0.418724
H     -1.158618     0.144747     1.116702
H      0.745040    -0.498284    -1.198784
H      0.626787    -1.410979     0.299037
H      1.420455     1.264299     0.148967
9
Iteration 1, Energy=-154.0653030930, |grad|=0.414109
C     -0.915340     0.071624     0.055030
C      0.509693    -0.414458    -0.117139
O      1.376978     0.420442     0.637673
H     -1.257013     0.833975    -0.633223
H     -1.623950    -0.762570    -0.078241
H     -1.171031     0.496439     1.111163
H      0.747008    -0.240609    -1.183578
H      0.635875    -1.410814     0.055970
H      1.732490     1.147825     0.288982
9
Iteration 2, Energy=-154.0632349199, |grad|=0.417916
C     -0.915356     0.071648     0.055045
C      0.509683    -0.414457    -0.117053
O      1.372146     0.420603     0.645233
H     -1.270264     0.819153    -0.648538
H     -1.623905    -0.772291    -0.056123
H     -1.171031     0.519209     1.110829
H      0.746972    -0.223606    -1.183484
H      0.635924    -1.409275     0.040102
H      1.753528     1.140019     0.297575
9
Iteration -1, Energy=-154.0927184748, |grad|=0.000614
C     -0.915282     0.071617     0.054979
C      0.511254    -0.415772    -0.130776
O      1.448473     0.396429     0.523357
H     -1.054121     1.059974    -0.394758
H     -1.623988    -0.612031    -0.418724
H     -1.158618     0.144747     1.116702
H      0.745040    -0.498284    -1.198784
H      0.626787    -1.410979     0.299037
H      1.420455     1.264299     0.148967
9
Iteration 1, Energy=-154.0927185867, |grad|=0.000471
C     -0.915316     0.071590     0.054957
C      0.511281    -0.415850    -0.130679
O      1.448489     0.396410     0.523310
H     -1.054132     1.059910    -0.394640
H     -1.624036    -0.612056    -0.418832
H     -1.158583     0.144806     1.116722
H      0.745103    -0.498269    -1.198832
H      0.626704    -1.410906     0.299048
H      1.420491     1.264365     0.148946
9
Iteration 2, Energy=-154.0927186924, |grad|=0.000413
C     -0.915356     0.071492     0.054961
C      0.511292    -0.415861    -0.130679
O      1.448533     0.396437     0.523246
H     -1.054150     1.059846    -0.394475
H     -1.624101    -0.612083    -0.418994
H     -1.158535     0.144890     1.116740
H      0.745187    -0.498257    -1.198841
H      0.626585    -1.410873     0.299112
H      1.420543     1.264409     0.148928
9
Iteration 3, Energy=-154.0927187368, |grad|=0.000849
C     -0.915420     0.071304     0.054922
C      0.511283    -0.415761    -0.130808
O      1.448597     0.396389     0.523143
H     -1.054243     1.059766    -0.394058
H     -1.624189    -0.612090    -0.419348
H     -1.158437     0.144944     1.116783
H      0.745396    -0.498293    -1.198778
H      0.626329    -1.410847     0.299356
H      1.420685     1.264588     0.148789
9
Iteration 4, Energy=-154.0927188117, |grad|=0.000266
C     -0.915433     0.071272     0.054950
C      0.511274    -0.415808    -0.130793
O      1.448614     0.396544     0.523073
H     -1.054264     1.059777    -0.394000
H     -1.624204    -0.612092    -0.419410
H     -1.158418     0.144940     1.116768
H      0.745434    -0.498302    -1.198789
H      0.626279    -1.410815     0.299378
H      1.420718     1.264484     0.148823
9
Iteration 5, Energy=-154.0927188257, |grad|=0.000167
C     -0.915422     0.071306     0.054950
C      0.511274    -0.415804    -0.130783
O      1.448597     0.396519     0.523097
H     -1.054266     1.059808    -0.394042
H     -1.624182    -0.612080    -0.419366
H     -1.158432     0.144894     1.116759
H      0.745413    -0.498316    -1.198790
H      0.626311    -1.410815     0.299365
H      1.420707     1.264487     0.148811
