9
Iteration -1, Energy=-154.0855821065, |grad|=0.023006
C     -0.983669     0.057162     0.024265
C      0.488936    -0.324526    -0.179249
O      1.335264     0.308956     0.754771
H     -1.357455     0.737536    -0.739569
H     -1.614988    -0.830446     0.034757
H     -1.074031     0.541727     0.990975
H      0.795977    -0.125698    -1.207588
H      0.613361    -1.390190    -0.026654
H      1.796605     1.025478     0.348292
9
Iteration 1, Energy=-154.0856645606, |grad|=0.026335
C     -0.976602     0.054612     0.024947
C      0.485653    -0.322588    -0.175119
O      1.336514     0.309912     0.748679
H     -1.357794     0.740081    -0.741109
H     -1.618245    -0.831236     0.031960
H     -1.076705     0.543596     0.996033
H      0.799471    -0.123285    -1.208539
H      0.613781    -1.397023    -0.024695
H      1.793927     1.025933     0.347844
9
Iteration 2, Energy=-154.0857635419, |grad|=0.011855
C     -0.979006     0.055867     0.025744
C      0.487756    -0.324834    -0.176800
O      1.336241     0.308881     0.749402
H     -1.356972     0.739677    -0.740277
H     -1.618134    -0.830654     0.031257
H     -1.077114     0.543192     0.995889
H      0.799547    -0.123165    -1.207366
H      0.613625    -1.396586    -0.024379
H      1.794057     1.027623     0.346532
9
Iteration 3, Energy=-154.0858310658, |grad|=0.009003
C     -0.980333     0.056702     0.027134
C      0.489355    -0.327803    -0.177789
O      1.337461     0.308555     0.748055
H     -1.355462     0.740000    -0.739190
H     -1.619144    -0.829620     0.028852
H     -1.078872     0.543015     0.997500
H      0.801078    -0.122222    -1.205885
H      0.613559    -1.398454    -0.023127
H      1.792358     1.029828     0.344450
9
Iteration 4, Energy=-154.0859272463, |grad|=0.013268
C     -0.981060     0.057269     0.029949
C      0.491078    -0.332358    -0.177759
O      1.340951     0.307299     0.744408
H     -1.351703     0.741607    -0.736695
H     -1.622142    -0.826999     0.022756
H     -1.083254     0.542302     1.001669
H      0.805021    -0.120473    -1.203322
H      0.613686    -1.403858    -0.020017
H      1.787423     1.035210     0.339011
9
Iteration 5, Energy=-154.0860386991, |grad|=0.019901
C     -0.981243     0.057879     0.033423
C      0.492732    -0.338127    -0.176083
O      1.350237     0.307414     0.739351
H     -1.344254     0.745311    -0.731519
H     -1.626998    -0.822250     0.012955
H     -1.089572     0.538512     1.006263
H      0.809349    -0.121022    -1.199336
H      0.613959    -1.409038    -0.015797
H      1.775790     1.041321     0.330742
9
Iteration 6, Energy=-154.0861987125, |grad|=0.017189
C     -0.978636     0.057129     0.037595
C      0.494648    -0.342873    -0.171002
O      1.361764     0.303141     0.732745
H     -1.332805     0.752722    -0.724185
H     -1.634587    -0.815367    -0.001820
H     -1.098729     0.532016     1.013571
H      0.814750    -0.123797    -1.194113
H      0.614711    -1.416583    -0.009255
H      1.758883     1.053611     0.316465
9
Iteration 7, Energy=-154.0864136462, |grad|=0.015257
C     -0.974469     0.055945     0.040129
C      0.497129    -0.346016    -0.163800
O      1.375982     0.300034     0.725165
H     -1.318104     0.764688    -0.715496
H     -1.641531    -0.807794    -0.018089
H     -1.106925     0.520915     1.020377
H      0.816048    -0.133190    -1.188979
H      0.615746    -1.420029    -0.002007
H      1.736124     1.065448     0.302700
9
Iteration 8, Energy=-154.0868148669, |grad|=0.028409
C     -0.964974     0.058441     0.043806
C      0.498008    -0.352909    -0.152110
O      1.401341     0.295890     0.710527
H     -1.285394     0.794594    -0.696761
H     -1.649922    -0.794428    -0.051500
H     -1.118531     0.492434     1.032997
H      0.811491    -0.161521    -1.184123
H      0.618834    -1.424680     0.016403
H      1.689146     1.092179     0.280762
9
Iteration 9, Energy=-154.0873803602, |grad|=0.044790
C     -0.956226     0.057732     0.043425
C      0.503038    -0.358499    -0.138671
O      1.424753     0.296474     0.686712
H     -1.243016     0.838752    -0.672682
H     -1.650998    -0.775436    -0.092781
H     -1.126759     0.452892     1.050204
H      0.796867    -0.207507    -1.183639
H      0.622152    -1.427204     0.043469
H      1.630190     1.122797     0.263961
9
Iteration 10, Energy=-154.0883721471, |grad|=0.047570
C     -0.941548     0.066742     0.043317
C      0.504144    -0.367590    -0.132720
O      1.437757     0.306551     0.658650
H     -1.198386     0.888510    -0.644247
H     -1.645508    -0.759896    -0.137369
H     -1.127374     0.405862     1.065468
H      0.773120    -0.266380    -1.191198
H      0.625330    -1.427434     0.078646
H      1.572466     1.153634     0.259453
9
Iteration 1, Energy=-154.0885453021, |grad|=0.065459
C     -0.941579     0.066712     0.042780
C      0.503721    -0.367208    -0.132833
O      1.431682     0.306986     0.650448
H     -1.177972     0.888384    -0.629514
H     -1.645456    -0.756257    -0.160735
H     -1.127049     0.390030     1.071462
H      0.772900    -0.266580    -1.191250
H      0.625300    -1.426461     0.092585
H      1.549431     1.170672     0.259613
9
Iteration 2, Energy=-154.0883655529, |grad|=0.046662
C     -0.945004     0.064372     0.041775
C      0.504004    -0.363229    -0.134823
O      1.436094     0.305864     0.660438
H     -1.201115     0.878198    -0.645751
H     -1.644306    -0.760861    -0.135596
H     -1.124795     0.410123     1.065072
H      0.776425    -0.256197    -1.191308
H      0.624287    -1.427106     0.075944
H      1.575925     1.152248     0.264126
9
Iteration -1, Energy=-154.0883655529, |grad|=0.046662
C     -0.945004     0.064372     0.041775
C      0.504004    -0.363229    -0.134823
O      1.436094     0.305864     0.660438
H     -1.201115     0.878198    -0.645751
H     -1.644306    -0.760861    -0.135596
H     -1.124795     0.410123     1.065072
H      0.776425    -0.256197    -1.191308
H      0.624287    -1.427106     0.075944
H      1.575925     1.152248     0.264126
9
Iteration 1, Energy=-154.0888183429, |grad|=0.028942
C     -0.948910     0.068469     0.046516
C      0.506503    -0.375169    -0.144127
O      1.433313     0.311114     0.659648
H     -1.201925     0.878078    -0.643356
H     -1.641317    -0.759816    -0.138259
H     -1.123319     0.409643     1.064043
H      0.776418    -0.256784    -1.192005
H      0.622925    -1.426350     0.079760
H      1.577828     1.154227     0.267658
9
Iteration 2, Energy=-154.0890267633, |grad|=0.021691
C     -0.948448     0.068158     0.046614
C      0.505986    -0.376550    -0.146801
O      1.429547     0.310872     0.658639
H     -1.202825     0.878757    -0.641421
H     -1.639490    -0.758718    -0.140428
H     -1.122074     0.409913     1.065639
H      0.776993    -0.257908    -1.195226
H      0.622405    -1.429243     0.083608
H      1.579420     1.158133     0.269254
9
Iteration 3, Energy=-154.0893908638, |grad|=0.017954
C     -0.944132     0.066976     0.046062
C      0.502294    -0.381293    -0.155019
O      1.415606     0.317532     0.650796
H     -1.206942     0.882791    -0.632371
H     -1.633283    -0.755148    -0.150801
H     -1.115201     0.409779     1.072119
H      0.779399    -0.264965    -1.210690
H      0.619655    -1.439887     0.099988
H      1.584119     1.167628     0.279793
9
Iteration 4, Energy=-154.0895399019, |grad|=0.023165
C     -0.943644     0.067995     0.046358
C      0.504215    -0.380972    -0.157621
O      1.412276     0.315645     0.651072
H     -1.208167     0.886846    -0.627127
H     -1.633575    -0.755290    -0.156882
H     -1.108584     0.405272     1.071366
H      0.778168    -0.274175    -1.214481
H      0.617514    -1.436186     0.105700
H      1.583311     1.174277     0.281493
9
Iteration 5, Energy=-154.0896933665, |grad|=0.021684
C     -0.943344     0.067560     0.044636
C      0.504730    -0.379748    -0.158930
O      1.412168     0.317037     0.650779
H     -1.208919     0.891019    -0.622631
H     -1.634041    -0.754944    -0.161858
H     -1.102653     0.400656     1.071245
H      0.776930    -0.283037    -1.216799
H      0.615646    -1.431891     0.109898
H      1.580997     1.176762     0.283537
9
Iteration 6, Energy=-154.0901659795, |grad|=0.020234
C     -0.940963     0.071433     0.034830
C      0.500215    -0.379143    -0.161522
O      1.414154     0.325422     0.639571
H     -1.210772     0.916869    -0.599695
H     -1.634035    -0.748772    -0.188606
H     -1.075369     0.368200     1.073560
H      0.776546    -0.327079    -1.224746
H      0.607201    -1.417259     0.135157
H      1.564537     1.193742     0.291328
9
Iteration 7, Energy=-154.0902980517, |grad|=0.017516
C     -0.941296     0.069535     0.032619
C      0.503095    -0.376443    -0.166784
O      1.415265     0.329252     0.633389
H     -1.210296     0.928878    -0.591544
H     -1.633002    -0.743386    -0.199227
H     -1.067708     0.355047     1.076267
H      0.776390    -0.343554    -1.224546
H      0.603325    -1.415419     0.146775
H      1.555743     1.199504     0.292929
9
Iteration 8, Energy=-154.0904306288, |grad|=0.014732
C     -0.939894     0.071670     0.029934
C      0.502566    -0.378584    -0.166440
O      1.417872     0.332220     0.626728
H     -1.208674     0.937710    -0.584759
H     -1.632667    -0.738972    -0.207517
H     -1.063953     0.343101     1.079132
H      0.778243    -0.354706    -1.224704
H      0.600693    -1.413954     0.155105
H      1.547330     1.204928     0.292399
9
Iteration 9, Energy=-154.0908137862, |grad|=0.019982
C     -0.933335     0.079074     0.026307
C      0.502545    -0.386259    -0.164909
O      1.430157     0.340523     0.602609
H     -1.198581     0.966806    -0.561998
H     -1.631966    -0.721103    -0.235815
H     -1.059669     0.302235     1.088588
H      0.786400    -0.388000    -1.222884
H      0.592184    -1.413465     0.183106
H      1.513780     1.223602     0.284874
9
Iteration 10, Energy=-154.0912072015, |grad|=0.025673
C     -0.927452     0.083975     0.025683
C      0.509053    -0.395007    -0.160724
O      1.445485     0.348081     0.574746
H     -1.178070     0.993059    -0.531022
H     -1.629985    -0.696477    -0.269258
H     -1.065364     0.261943     1.098624
H      0.793788    -0.421102    -1.221925
H      0.584029    -1.413545     0.212792
H      1.470030     1.242486     0.270962
9
Iteration 1, Energy=-154.0911373856, |grad|=0.025422
C     -0.926931     0.086922     0.026879
C      0.509338    -0.396567    -0.160241
O      1.446711     0.351010     0.568023
H     -1.177837     1.011050    -0.516441
H     -1.630018    -0.694363    -0.284105
H     -1.070988     0.240043     1.101618
H      0.793646    -0.446908    -1.219235
H      0.582100    -1.415760     0.233952
H      1.463821     1.251540     0.269966
9
Iteration 2, Energy=-154.0911282476, |grad|=0.020516
C     -0.929379     0.084874     0.026501
C      0.508572    -0.392721    -0.161349
O      1.441132     0.347560     0.579972
H     -1.184841     0.995121    -0.530336
H     -1.630488    -0.703019    -0.268658
H     -1.067503     0.261667     1.096744
H      0.793021    -0.427298    -1.220774
H      0.584978    -1.415126     0.216984
H      1.480834     1.242409     0.274253
9
Iteration -1, Energy=-154.0911282476, |grad|=0.020516
C     -0.929379     0.084874     0.026501
C      0.508572    -0.392721    -0.161349
O      1.441132     0.347560     0.579972
H     -1.184841     0.995121    -0.530336
H     -1.630488    -0.703019    -0.268658
H     -1.067503     0.261667     1.096744
H      0.793021    -0.427298    -1.220774
H      0.584978    -1.415126     0.216984
H      1.480834     1.242409     0.274253
9
Iteration 1, Energy=-154.0913105099, |grad|=0.027362
C     -0.925818     0.076652     0.034333
C      0.507372    -0.395135    -0.164418
O      1.442596     0.350070     0.581635
H     -1.177559     0.992097    -0.526487
H     -1.629128    -0.698636    -0.272560
H     -1.073604     0.266230     1.093820
H      0.789545    -0.425632    -1.219923
H      0.586309    -1.411354     0.216079
H      1.476616     1.239175     0.270857
9
Iteration 2, Energy=-154.0914821128, |grad|=0.016217
C     -0.924113     0.075461     0.034881
C      0.508395    -0.394987    -0.162434
O      1.441806     0.348091     0.581749
H     -1.171680     0.988231    -0.522618
H     -1.629088    -0.697037    -0.275394
H     -1.077910     0.269053     1.094672
H      0.787195    -0.424365    -1.220810
H      0.587921    -1.410610     0.215699
H      1.473800     1.239629     0.267592
9
Iteration 3, Energy=-154.0916532926, |grad|=0.014111
C     -0.921252     0.073602     0.037262
C      0.510796    -0.395110    -0.158342
O      1.440688     0.348613     0.580342
H     -1.157653     0.981492    -0.515067
H     -1.629240    -0.694237    -0.282309
H     -1.087924     0.274667     1.097052
H      0.781360    -0.421202    -1.222215
H      0.592436    -1.411489     0.215281
H      1.467116     1.237130     0.261332
9
Iteration 4, Energy=-154.0917625997, |grad|=0.017067
C     -0.920890     0.071298     0.041624
C      0.511874    -0.396529    -0.155965
O      1.440818     0.347941     0.579745
H     -1.146775     0.981883    -0.512705
H     -1.629076    -0.692723    -0.287745
H     -1.095417     0.276950     1.099166
H      0.776301    -0.418552    -1.221780
H      0.597497    -1.415238     0.215579
H      1.461995     1.238435     0.255418
9
Iteration 5, Energy=-154.0919325481, |grad|=0.012972
C     -0.921371     0.069523     0.047390
C      0.512024    -0.402517    -0.150122
O      1.442172     0.351299     0.576864
H     -1.127090     0.985355    -0.509937
H     -1.628726    -0.690502    -0.297144
H     -1.108510     0.278479     1.104392
H      0.766850    -0.413870    -1.219969
H      0.607956    -1.423318     0.215918
H      1.453024     1.239015     0.245944
9
Iteration 6, Energy=-154.0919672060, |grad|=0.026032
C     -0.921183     0.071821     0.051117
C      0.509558    -0.403164    -0.146277
O      1.442467     0.355748     0.569582
H     -1.105154     0.991532    -0.506561
H     -1.627768    -0.682966    -0.305010
H     -1.120953     0.268816     1.104911
H      0.753813    -0.413992    -1.208408
H      0.622698    -1.434167     0.218082
H      1.442848     1.239838     0.235900
9
Iteration 7, Energy=-154.0920754671, |grad|=0.006279
C     -0.921368     0.070988     0.050648
C      0.509124    -0.407931    -0.142810
O      1.443209     0.356541     0.569765
H     -1.106291     0.994066    -0.507550
H     -1.627866    -0.682624    -0.305018
H     -1.120303     0.267426     1.105534
H      0.754485    -0.414614    -1.210691
H      0.622131    -1.431333     0.217454
H      1.443206     1.240946     0.236005
9
Iteration 8, Energy=-154.0920919800, |grad|=0.005724
C     -0.920974     0.071399     0.049375
C      0.509052    -0.407711    -0.143251
O      1.443407     0.356738     0.570013
H     -1.108432     0.994653    -0.507522
H     -1.628283    -0.682046    -0.304359
H     -1.118731     0.265354     1.105132
H      0.755303    -0.416430    -1.210852
H      0.621065    -1.429768     0.217985
H      1.443921     1.241276     0.236816
9
Iteration 9, Energy=-154.0921544374, |grad|=0.007374
C     -0.919656     0.072435     0.047574
C      0.509994    -0.407396    -0.142733
O      1.444202     0.359259     0.568669
H     -1.108328     0.999407    -0.504411
H     -1.630519    -0.676865    -0.307359
H     -1.117438     0.254291     1.104737
H      0.754824    -0.424696    -1.211243
H      0.620884    -1.426358     0.222471
H      1.442365     1.243387     0.235633
9
Iteration 10, Energy=-154.0922436657, |grad|=0.018802
C     -0.916917     0.072914     0.044469
C      0.510250    -0.411061    -0.144305
O      1.447053     0.366381     0.563698
H     -1.097822     1.010293    -0.490063
H     -1.634481    -0.662678    -0.322956
H     -1.121106     0.230819     1.109248
H      0.751443    -0.442824    -1.210742
H      0.623930    -1.421453     0.236758
H      1.433977     1.251074     0.227230
9
Iteration 1, Energy=-154.0915074962, |grad|=0.061003
C     -0.911523     0.073335     0.043315
C      0.510553    -0.408567    -0.144672
O      1.447696     0.371951     0.556094
H     -1.086966     1.016639    -0.474619
H     -1.635812    -0.700619    -0.333098
H     -1.122403     0.227795     1.111855
H      0.751401    -0.456051    -1.210673
H      0.624094    -1.417602     0.238494
H      1.418602     1.260398     0.226931
9
Iteration 2, Energy=-154.0922543705, |grad|=0.021097
C     -0.916445     0.071991     0.045136
C      0.509059    -0.410563    -0.146082
O      1.443880     0.365320     0.562846
H     -1.090361     1.007088    -0.485934
H     -1.631848    -0.663994    -0.325264
H     -1.118748     0.234999     1.109409
H      0.758004    -0.439600    -1.210005
H      0.619962    -1.422232     0.236373
H      1.431804     1.248721     0.235330
9
Iteration -1, Energy=-154.0922436657, |grad|=0.018802
C     -0.916917     0.072914     0.044469
C      0.510250    -0.411061    -0.144305
O      1.447053     0.366381     0.563698
H     -1.097822     1.010293    -0.490063
H     -1.634481    -0.662678    -0.322956
H     -1.121106     0.230819     1.109248
H      0.751443    -0.442824    -1.210742
H      0.623930    -1.421453     0.236758
H      1.433977     1.251074     0.227230
9
Iteration 1, Energy=-154.0923119427, |grad|=0.006669
C     -0.917862     0.072690     0.047858
C      0.511652    -0.408355    -0.143054
O      1.445163     0.366052     0.561162
H     -1.097536     1.010694    -0.489210
H     -1.634456    -0.663143    -0.324543
H     -1.120625     0.231157     1.107530
H      0.752512    -0.442944    -1.211709
H      0.623565    -1.423133     0.237897
H      1.433916     1.250449     0.227406
9
Iteration 2, Energy=-154.0923269127, |grad|=0.005791
C     -0.918210     0.072559     0.048028
C      0.511522    -0.408599    -0.142896
O      1.444797     0.366127     0.560115
H     -1.097273     1.010665    -0.487808
H     -1.634081    -0.663323    -0.325836
H     -1.120617     0.231709     1.107896
H      0.753262    -0.442946    -1.211947
H      0.623177    -1.423346     0.238603
H      1.433750     1.250621     0.227183
9
Iteration 3, Energy=-154.0923673116, |grad|=0.007434
C     -0.919250     0.070046     0.050306
C      0.509789    -0.410186    -0.144809
O      1.444133     0.366283     0.555373
H     -1.095689     1.012225    -0.478883
H     -1.631644    -0.664165    -0.334714
H     -1.120855     0.234613     1.109888
H      0.757455    -0.443731    -1.211916
H      0.620483    -1.424417     0.243593
H      1.431904     1.252796     0.224500
9
Iteration 4, Energy=-154.0923771367, |grad|=0.012498
C     -0.918933     0.070314     0.049406
C      0.510654    -0.411748    -0.142637
O      1.444796     0.368980     0.553380
H     -1.094831     1.013810    -0.474122
H     -1.630745    -0.663619    -0.338771
H     -1.121355     0.233081     1.110678
H      0.757951    -0.445881    -1.212410
H      0.618955    -1.423066     0.245137
H      1.429835     1.251593     0.222675
9
Iteration 5, Energy=-154.0923943525, |grad|=0.006101
C     -0.918689     0.070434     0.049145
C      0.510798    -0.411164    -0.142976
O      1.445082     0.368072     0.554311
H     -1.094872     1.013986    -0.474703
H     -1.630836    -0.663278    -0.338155
H     -1.121458     0.232350     1.110504
H      0.757374    -0.446174    -1.212015
H      0.619231    -1.423074     0.244984
H      1.429697     1.252314     0.222241
9
Iteration 6, Energy=-154.0924139081, |grad|=0.004318
C     -0.918085     0.070486     0.048994
C      0.511325    -0.410667    -0.142953
O      1.445915     0.368115     0.554446
H     -1.094283     1.015664    -0.472531
H     -1.630255    -0.662238    -0.340078
H     -1.121970     0.229979     1.110407
H      0.756851    -0.448170    -1.211318
H      0.618759    -1.422709     0.246208
H      1.428070     1.253004     0.220160
9
Iteration 7, Energy=-154.0924494021, |grad|=0.008888
C     -0.916610     0.070694     0.048909
C      0.512583    -0.410184    -0.142143
O      1.447889     0.369705     0.553041
H     -1.092185     1.020836    -0.464611
H     -1.628083    -0.659161    -0.347279
H     -1.123538     0.223090     1.110436
H      0.756156    -0.454195    -1.209734
H      0.616974    -1.421568     0.250570
H      1.423141     1.254247     0.214148
9
Iteration 8, Energy=-154.0924944423, |grad|=0.011447
C     -0.914797     0.071479     0.049106
C      0.513528    -0.410471    -0.140610
O      1.449820     0.373021     0.549138
H     -1.088524     1.028661    -0.452680
H     -1.624372    -0.653846    -0.358443
H     -1.126163     0.211899     1.110850
H      0.755660    -0.463153    -1.207535
H      0.614820    -1.420119     0.257859
H      1.416355     1.255995     0.205653
9
Iteration 9, Energy=-154.0925848612, |grad|=0.013701
C     -0.911983     0.074204     0.049818
C      0.513603    -0.413009    -0.137745
O      1.450695     0.380288     0.537670
H     -1.078271     1.044731    -0.430469
H     -1.617734    -0.639483    -0.381272
H     -1.133545     0.184057     1.113891
H      0.754362    -0.481878    -1.203246
H      0.613760    -1.417383     0.275364
H      1.405441     1.261938     0.189325
9
Iteration 10, Energy=-154.0926225903, |grad|=0.013664
C     -0.912136     0.074259     0.051960
C      0.512155    -0.413401    -0.137132
O      1.453231     0.387132     0.531837
H     -1.069566     1.051508    -0.416929
H     -1.617216    -0.629554    -0.395588
H     -1.138730     0.167337     1.113985
H      0.752502    -0.493253    -1.202021
H      0.615186    -1.415351     0.286691
H      1.400903     1.264787     0.180534
9
Iteration 1, Energy=-154.0922496709, |grad|=0.036619
C     -0.912725     0.073871     0.051816
C      0.515227    -0.416246    -0.136827
O      1.452168     0.387075     0.505777
H     -1.055407     1.049565    -0.411555
H     -1.619942    -0.629815    -0.418135
H     -1.138502     0.168255     1.119021
H      0.750674    -0.492262    -1.202926
H      0.617304    -1.408876     0.318921
H      1.404030     1.269356     0.183072
9
Iteration 2, Energy=-154.0924000016, |grad|=0.031783
C     -0.919959     0.072713     0.052514
C      0.511652    -0.413985    -0.139338
O      1.446834     0.382546     0.530120
H     -1.075039     1.028841    -0.433805
H     -1.620183    -0.641950    -0.382541
H     -1.134581     0.195305     1.114399
H      0.755203    -0.470930    -1.204151
H      0.616041    -1.415093     0.281227
H      1.427623     1.259321     0.191876
9
Iteration -1, Energy=-154.0926225903, |grad|=0.013664
C     -0.912136     0.074259     0.051960
C      0.512155    -0.413401    -0.137132
O      1.453231     0.387132     0.531837
H     -1.069566     1.051508    -0.416929
H     -1.617216    -0.629554    -0.395588
H     -1.138730     0.167337     1.113985
H      0.752502    -0.493253    -1.202021
H      0.615186    -1.415351     0.286691
H      1.400903     1.264787     0.180534
9
Iteration 1, Energy=-154.0926465303, |grad|=0.006844
C     -0.912175     0.074345     0.051559
C      0.512728    -0.414241    -0.135861
O      1.452410     0.387345     0.530851
H     -1.069411     1.051356    -0.416874
H     -1.617502    -0.629453    -0.395706
H     -1.138934     0.167346     1.114379
H      0.752561    -0.493037    -1.202410
H      0.615337    -1.414789     0.286519
H      1.401313     1.264594     0.180879
9
Iteration 2, Energy=-154.0926588246, |grad|=0.003758
C     -0.912168     0.074045     0.051389
C      0.513361    -0.415000    -0.134879
O      1.451152     0.387150     0.529521
H     -1.068927     1.051158    -0.416885
H     -1.618238    -0.629170    -0.396038
H     -1.139454     0.167370     1.114928
H      0.752546    -0.492633    -1.202600
H      0.615935    -1.414342     0.286671
H      1.402121     1.264887     0.181230
9
Iteration 3, Energy=-154.0926647695, |grad|=0.003857
C     -0.912256     0.073591     0.051532
C      0.513313    -0.415408    -0.134893
O      1.450521     0.387285     0.528726
H     -1.068278     1.050881    -0.416889
H     -1.619049    -0.628800    -0.396405
H     -1.140031     0.167360     1.115254
H      0.752439    -0.492293    -1.202571
H      0.616755    -1.414302     0.287091
H      1.402913     1.265152     0.181491
9
Iteration 4, Energy=-154.0926770146, |grad|=0.004936
C     -0.913226     0.072124     0.052051
C      0.512650    -0.416424    -0.134943
O      1.449327     0.387108     0.527226
H     -1.065648     1.049548    -0.416695
H     -1.622007    -0.627272    -0.397658
H     -1.142106     0.167115     1.115967
H      0.751841    -0.491372    -1.202887
H      0.619999    -1.414309     0.288595
H      1.405498     1.266947     0.181681
9
Iteration 5, Energy=-154.0926789452, |grad|=0.008017
C     -0.914389     0.070524     0.052952
C      0.511874    -0.416982    -0.135424
O      1.449199     0.389368     0.526350
H     -1.062661     1.048325    -0.416392
H     -1.625387    -0.625591    -0.399001
H     -1.144449     0.166484     1.116062
H      0.750574    -0.490906    -1.203118
H      0.623608    -1.414495     0.289945
H      1.407958     1.266740     0.181964
9
Iteration 6, Energy=-154.0926861996, |grad|=0.002417
C     -0.914196     0.070873     0.052709
C      0.512059    -0.416615    -0.135287
O      1.449511     0.388415     0.527120
H     -1.063147     1.048562    -0.416362
H     -1.624792    -0.625860    -0.398737
H     -1.144089     0.166464     1.115919
H      0.750610    -0.491157    -1.203068
H      0.623039    -1.414446     0.289604
H      1.407333     1.267231     0.181439
9
Iteration 7, Energy=-154.0926880603, |grad|=0.001626
C     -0.914274     0.070827     0.052696
C      0.512123    -0.416426    -0.135173
O      1.449805     0.388380     0.527633
H     -1.062863     1.048548    -0.416230
H     -1.625058    -0.625685    -0.398823
H     -1.144368     0.166218     1.115753
H      0.750248    -0.491337    -1.203056
H      0.623399    -1.414400     0.289530
H      1.407317     1.267341     0.181005
9
Iteration 8, Energy=-154.0926901447, |grad|=0.001885
C     -0.914403     0.070587     0.052730
C      0.512301    -0.416261    -0.134839
O      1.450080     0.388676     0.528259
H     -1.062046     1.048510    -0.415925
H     -1.625842    -0.625164    -0.399158
H     -1.145214     0.165637     1.115517
H      0.749423    -0.491596    -1.202948
H      0.624448    -1.414268     0.289476
H      1.407580     1.267344     0.180224
9
Iteration 9, Energy=-154.0926924125, |grad|=0.001727
C     -0.914371     0.070345     0.052817
C      0.512523    -0.416245    -0.134278
O      1.449927     0.389187     0.528656
H     -1.061009     1.048715    -0.415382
H     -1.626496    -0.624392    -0.399721
H     -1.146503     0.164715     1.115308
H      0.748427    -0.491839    -1.202507
H      0.625841    -1.414184     0.289434
H      1.407989     1.267165     0.179011
9
Iteration 10, Energy=-154.0926960965, |grad|=0.002012
C     -0.914617     0.070422     0.053242
C      0.512336    -0.416592    -0.132883
O      1.449297     0.390337     0.529162
H     -1.059128     1.049541    -0.413604
H     -1.626353    -0.622892    -0.401419
H     -1.149102     0.162566     1.115185
H      0.747232    -0.492154    -1.201717
H      0.628041    -1.414519     0.289706
H      1.408622     1.266758     0.175665
9
Iteration 1, Energy=-154.0916811015, |grad|=0.077320
C     -0.920069     0.060575     0.050583
C      0.507624    -0.417679    -0.132162
O      1.455082     0.386589     0.534628
H     -1.036533     1.041050    -0.407267
H     -1.646238    -0.613889    -0.409437
H     -1.161179     0.161243     1.113014
H      0.734781    -0.499167    -1.198687
H      0.639869    -1.403371     0.289939
H      1.418600     1.280543     0.158847
9
Iteration 2, Energy=-154.0923093280, |grad|=0.048241
C     -0.914768     0.072245     0.053919
C      0.513941    -0.415099    -0.132054
O      1.446637     0.402645     0.539123
H     -1.036250     1.055031    -0.415216
H     -1.625660    -0.609132    -0.404055
H     -1.159415     0.146033     1.112412
H      0.746044    -0.494819    -1.202772
H      0.631363    -1.418472     0.286984
H      1.414786     1.260375     0.171815
9
Iteration -1, Energy=-154.0926960965, |grad|=0.002012
C     -0.914617     0.070422     0.053242
C      0.512336    -0.416592    -0.132883
O      1.449297     0.390337     0.529162
H     -1.059128     1.049541    -0.413604
H     -1.626353    -0.622892    -0.401419
H     -1.149102     0.162566     1.115185
H      0.747232    -0.492154    -1.201717
H      0.628041    -1.414519     0.289706
H      1.408622     1.266758     0.175665
9
Iteration 1, Energy=-154.0926971304, |grad|=0.001286
C     -0.914445     0.070270     0.053349
C      0.512459    -0.416559    -0.133074
O      1.449013     0.390492     0.528832
H     -1.059165     1.049736    -0.413500
H     -1.626257    -0.622929    -0.401644
H     -1.149181     0.162540     1.115376
H      0.747339    -0.492073    -1.201483
H      0.627873    -1.414569     0.289868
H      1.408693     1.266559     0.175613
9
Iteration 2, Energy=-154.0926978612, |grad|=0.001167
C     -0.914323     0.070195     0.053421
C      0.512514    -0.416613    -0.133130
O      1.448723     0.390405     0.528556
H     -1.059194     1.049902    -0.413245
H     -1.626056    -0.622958    -0.401983
H     -1.149270     0.162456     1.115618
H      0.747545    -0.491975    -1.201315
H      0.627625    -1.414562     0.290081
H      1.408764     1.266616     0.175333
9
Iteration 3, Energy=-154.0926990342, |grad|=0.001460
C     -0.914304     0.070170     0.053588
C      0.512338    -0.416819    -0.133119
O      1.448411     0.390586     0.528109
H     -1.059211     1.050152    -0.412489
H     -1.625484    -0.622953    -0.402784
H     -1.149423     0.162137     1.115994
H      0.748068    -0.491826    -1.201149
H      0.627030    -1.414533     0.290580
H      1.408901     1.266551     0.174606
9
Iteration 4, Energy=-154.0927003229, |grad|=0.002469
C     -0.914493     0.070033     0.054017
C      0.512098    -0.416521    -0.133187
O      1.448166     0.390723     0.527770
H     -1.059192     1.050734    -0.410821
H     -1.624381    -0.622812    -0.404411
H     -1.149720     0.161172     1.116381
H      0.748909    -0.491820    -1.200803
H      0.625866    -1.414624     0.291682
H      1.409075     1.266581     0.172709
9
Iteration 5, Energy=-154.0927018815, |grad|=0.001438
C     -0.914566     0.070183     0.054005
C      0.512020    -0.416664    -0.132799
O      1.448207     0.391124     0.527707
H     -1.059190     1.051021    -0.409775
H     -1.623889    -0.622700    -0.405304
H     -1.149927     0.160406     1.116524
H      0.749228    -0.491959    -1.200737
H      0.625247    -1.414347     0.292117
H      1.409197     1.266402     0.171598
9
Iteration 6, Energy=-154.0927036560, |grad|=0.001515
C     -0.914638     0.070325     0.053978
C      0.512002    -0.416567    -0.132285
O      1.448467     0.391772     0.527923
H     -1.059184     1.051613    -0.408193
H     -1.623312    -0.622401    -0.406588
H     -1.150308     0.158940     1.116484
H      0.749428    -0.492416    -1.200498
H      0.624472    -1.413903     0.292760
H      1.409400     1.266103     0.169756
9
Iteration 7, Energy=-154.0927055677, |grad|=0.001804
C     -0.914616     0.070432     0.053922
C      0.512122    -0.416261    -0.131701
O      1.448591     0.392558     0.528124
H     -1.059184     1.052585    -0.406176
H     -1.622703    -0.621837    -0.408229
H     -1.150964     0.156732     1.116347
H      0.749480    -0.493161    -1.199939
H      0.623741    -1.413348     0.293676
H      1.409861     1.265767     0.167312
9
Iteration 8, Energy=-154.0927092630, |grad|=0.002045
C     -0.914585     0.070635     0.053970
C      0.511968    -0.415979    -0.130804
O      1.448306     0.394131     0.528094
H     -1.059061     1.054728    -0.402350
H     -1.621846    -0.620262    -0.411539
H     -1.152749     0.151863     1.116120
H      0.749427    -0.494791    -1.198661
H      0.623316    -1.412368     0.295855
H      1.411552     1.265509     0.162652
9
Iteration 9, Energy=-154.0927113241, |grad|=0.002977
C     -0.915192     0.070585     0.053713
C      0.512317    -0.415303    -0.129713
O      1.447758     0.395516     0.527694
H     -1.058676     1.056368    -0.398860
H     -1.621352    -0.618548    -0.414590
H     -1.154623     0.147587     1.116259
H      0.749300    -0.496336    -1.197866
H      0.623384    -1.411650     0.298003
H      1.413412     1.265247     0.158696
9
Iteration 10, Energy=-154.0927148942, |grad|=0.001474
C     -0.915262     0.070610     0.054106
C      0.512000    -0.415201    -0.129127
O      1.447104     0.397142     0.527345
H     -1.058243     1.058540    -0.395078
H     -1.621257    -0.616538    -0.418257
H     -1.157074     0.142366     1.116127
H      0.748984    -0.498182    -1.196548
H      0.624101    -1.410661     0.300593
H      1.415974     1.265390     0.154176
9
Iteration 1, Energy=-154.0926284984, |grad|=0.015934
C     -0.916249     0.072355     0.054412
C      0.513427    -0.412187    -0.124033
O      1.443645     0.408084     0.525693
H     -1.058451     1.072198    -0.376830
H     -1.612294    -0.607406    -0.438512
H     -1.168193     0.132609     1.116787
H      0.750626    -0.506439    -1.189787
H      0.619783    -1.407031     0.305423
H      1.424662     1.260613     0.125149
9
Iteration 2, Energy=-154.0926991516, |grad|=0.009289
C     -0.914813     0.071777     0.054196
C      0.512364    -0.414730    -0.130139
O      1.446313     0.398099     0.526231
H     -1.061448     1.060626    -0.396003
H     -1.619469    -0.616531    -0.418347
H     -1.156238     0.144644     1.116105
H      0.750422    -0.499021    -1.196444
H      0.622815    -1.410919     0.300390
H      1.416833     1.264433     0.154841
9
Iteration -1, Energy=-154.0927148942, |grad|=0.001474
C     -0.915262     0.070610     0.054106
C      0.512000    -0.415201    -0.129127
O      1.447104     0.397142     0.527345
H     -1.058243     1.058540    -0.395078
H     -1.621257    -0.616538    -0.418257
H     -1.157074     0.142366     1.116127
H      0.748984    -0.498182    -1.196548
H      0.624101    -1.410661     0.300593
H      1.415974     1.265390     0.154176
9
Iteration 1, Energy=-154.0927159584, |grad|=0.001560
C     -0.915207     0.070205     0.054479
C      0.511719    -0.415390    -0.129537
O      1.447075     0.397054     0.527211
H     -1.058014     1.058379    -0.395056
H     -1.621628    -0.616441    -0.418593
H     -1.157412     0.142650     1.116297
H      0.749011    -0.498058    -1.196520
H      0.624493    -1.410619     0.300796
H      1.416291     1.265687     0.154261
9
Iteration 2, Energy=-154.0927169691, |grad|=0.001094
C     -0.915407     0.069902     0.054605
C      0.511620    -0.415608    -0.129580
O      1.446957     0.397109     0.526876
H     -1.057688     1.058010    -0.394936
H     -1.622024    -0.616252    -0.418915
H     -1.157817     0.142952     1.116556
H      0.749018    -0.497930    -1.196684
H      0.624980    -1.410547     0.300966
H      1.416688     1.265830     0.154449
9
Iteration 3, Energy=-154.0927173648, |grad|=0.002032
C     -0.916037     0.069438     0.054846
C      0.511715    -0.415507    -0.129492
O      1.446841     0.396877     0.526525
H     -1.056940     1.057240    -0.394685
H     -1.622880    -0.615817    -0.419429
H     -1.158646     0.143371     1.116752
H      0.748777    -0.497810    -1.197030
H      0.626113    -1.410630     0.301281
H      1.417384     1.266304     0.154569
9
Iteration 4, Energy=-154.0927179195, |grad|=0.000745
C     -0.915969     0.069420     0.054834
C      0.511653    -0.415667    -0.129448
O      1.446958     0.397243     0.526524
H     -1.056888     1.057273    -0.394698
H     -1.622982    -0.615790    -0.419425
H     -1.158752     0.143320     1.116702
H      0.748648    -0.497823    -1.197002
H      0.626234    -1.410569     0.301212
H      1.417424     1.266059     0.154638
9
Iteration 5, Energy=-154.0927180478, |grad|=0.000551
C     -0.915907     0.069456     0.054783
C      0.511680    -0.415667    -0.129392
O      1.447010     0.397251     0.526623
H     -1.056902     1.057355    -0.394725
H     -1.622971    -0.615793    -0.419362
H     -1.158761     0.143231     1.116637
H      0.748557    -0.497853    -1.196949
H      0.626244    -1.410557     0.301149
H      1.417377     1.266043     0.154572
9
Iteration 6, Energy=-154.0927183670, |grad|=0.000323
C     -0.915847     0.069403     0.054746
C      0.511819    -0.415634    -0.129194
O      1.447115     0.397347     0.526804
H     -1.056617     1.057457    -0.394761
H     -1.623259    -0.615604    -0.419314
H     -1.159227     0.142973     1.116424
H      0.748014    -0.497910    -1.196755
H      0.626830    -1.410592     0.301030
H      1.417500     1.266025     0.154357
9
Iteration 7, Energy=-154.0927184090, |grad|=0.000824
C     -0.915885     0.069374     0.054804
C      0.511670    -0.415861    -0.128936
O      1.447096     0.397392     0.526801
H     -1.056228     1.057395    -0.394701
H     -1.623450    -0.615369    -0.419452
H     -1.159798     0.142819     1.116415
H      0.747689    -0.497845    -1.196741
H      0.627481    -1.410590     0.301024
H      1.417753     1.266150     0.154123
9
Iteration 8, Energy=-154.0927185093, |grad|=0.000271
C     -0.915914     0.069343     0.054827
C      0.511741    -0.415759    -0.128997
O      1.447064     0.397425     0.526781
H     -1.056207     1.057432    -0.394701
H     -1.623421    -0.615351    -0.419455
H     -1.159826     0.142793     1.116410
H      0.747654    -0.497848    -1.196679
H      0.627489    -1.410653     0.301050
H      1.417748     1.266084     0.154102
