9
Iteration -1, Energy=-154.0855821065, |grad|=0.023006
C     -0.983669     0.057162     0.024265
C      0.488936    -0.324526    -0.179249
O      1.335264     0.308956     0.754771
H     -1.357455     0.737536    -0.739569
H     -1.614988    -0.830446     0.034757
H     -1.074031     0.541727     0.990975
H      0.795977    -0.125698    -1.207588
H      0.613361    -1.390190    -0.026654
H      1.796605     1.025478     0.348292
9
Iteration 1, Energy=-154.0856645606, |grad|=0.026335
C     -0.976602     0.054612     0.024947
C      0.485653    -0.322588    -0.175119
O      1.336514     0.309912     0.748679
H     -1.357794     0.740081    -0.741109
H     -1.618245    -0.831236     0.031960
H     -1.076705     0.543596     0.996033
H      0.799471    -0.123285    -1.208539
H      0.613781    -1.397023    -0.024695
H      1.793927     1.025933     0.347844
9
Iteration 2, Energy=-154.0857635419, |grad|=0.011855
C     -0.979006     0.055867     0.025744
C      0.487756    -0.324834    -0.176800
O      1.336241     0.308881     0.749402
H     -1.356972     0.739677    -0.740277
H     -1.618134    -0.830654     0.031257
H     -1.077114     0.543192     0.995889
H      0.799547    -0.123165    -1.207366
H      0.613625    -1.396586    -0.024379
H      1.794057     1.027623     0.346532
9
Iteration 3, Energy=-154.0858310658, |grad|=0.009003
C     -0.980333     0.056702     0.027134
C      0.489355    -0.327803    -0.177789
O      1.337461     0.308555     0.748055
H     -1.355462     0.740000    -0.739190
H     -1.619144    -0.829620     0.028852
H     -1.078872     0.543015     0.997500
H      0.801078    -0.122222    -1.205885
H      0.613559    -1.398454    -0.023127
H      1.792358     1.029828     0.344450
9
Iteration 4, Energy=-154.0859272463, |grad|=0.013268
C     -0.981060     0.057269     0.029949
C      0.491078    -0.332358    -0.177759
O      1.340951     0.307299     0.744408
H     -1.351703     0.741607    -0.736695
H     -1.622142    -0.826999     0.022756
H     -1.083254     0.542302     1.001669
H      0.805021    -0.120473    -1.203322
H      0.613686    -1.403858    -0.020017
H      1.787423     1.035210     0.339011
9
Iteration 5, Energy=-154.0860386991, |grad|=0.019901
C     -0.981243     0.057879     0.033423
C      0.492732    -0.338127    -0.176083
O      1.350237     0.307414     0.739351
H     -1.344254     0.745311    -0.731519
H     -1.626998    -0.822250     0.012955
H     -1.089572     0.538512     1.006263
H      0.809349    -0.121022    -1.199336
H      0.613959    -1.409038    -0.015797
H      1.775790     1.041321     0.330742
9
Iteration 6, Energy=-154.0861987125, |grad|=0.017189
C     -0.978636     0.057129     0.037595
C      0.494648    -0.342873    -0.171002
O      1.361764     0.303141     0.732745
H     -1.332805     0.752722    -0.724185
H     -1.634587    -0.815367    -0.001820
H     -1.098729     0.532016     1.013571
H      0.814750    -0.123797    -1.194113
H      0.614711    -1.416583    -0.009255
H      1.758883     1.053611     0.316465
9
Iteration 7, Energy=-154.0864136462, |grad|=0.015257
C     -0.974469     0.055945     0.040129
C      0.497129    -0.346016    -0.163800
O      1.375982     0.300034     0.725165
H     -1.318104     0.764688    -0.715496
H     -1.641531    -0.807794    -0.018089
H     -1.106925     0.520915     1.020377
H      0.816048    -0.133190    -1.188979
H      0.615746    -1.420029    -0.002007
H      1.736124     1.065448     0.302700
9
Iteration 8, Energy=-154.0868148669, |grad|=0.028409
C     -0.964974     0.058441     0.043806
C      0.498008    -0.352909    -0.152110
O      1.401341     0.295890     0.710527
H     -1.285394     0.794594    -0.696761
H     -1.649922    -0.794428    -0.051500
H     -1.118531     0.492434     1.032997
H      0.811491    -0.161521    -1.184123
H      0.618834    -1.424680     0.016403
H      1.689146     1.092179     0.280762
9
Iteration 9, Energy=-154.0873803602, |grad|=0.044790
C     -0.956226     0.057732     0.043425
C      0.503038    -0.358499    -0.138671
O      1.424753     0.296474     0.686712
H     -1.243016     0.838752    -0.672682
H     -1.650998    -0.775436    -0.092781
H     -1.126759     0.452892     1.050204
H      0.796867    -0.207507    -1.183639
H      0.622152    -1.427204     0.043469
H      1.630190     1.122797     0.263961
9
Iteration 10, Energy=-154.0883721471, |grad|=0.047570
C     -0.941548     0.066742     0.043317
C      0.504144    -0.367590    -0.132720
O      1.437757     0.306551     0.658650
H     -1.198386     0.888510    -0.644247
H     -1.645508    -0.759896    -0.137369
H     -1.127374     0.405862     1.065468
H      0.773120    -0.266380    -1.191198
H      0.625330    -1.427434     0.078646
H      1.572466     1.153634     0.259453
9
Iteration 1, Energy=-154.0809855644, |grad|=0.204031
C     -0.936647     0.067237     0.044425
C      0.505217    -0.370433    -0.129553
O      1.376978     0.307807     0.647805
H     -1.257013     0.833975    -0.635233
H     -1.644783    -0.762570    -0.078241
H     -1.130310     0.496439     1.071269
H      0.764292    -0.240609    -1.193413
H      0.626204    -1.430009     0.055970
H      1.732490     1.147825     0.288982
9
Iteration 2, Energy=-154.0795197610, |grad|=0.222780
C     -0.933806     0.068545     0.047034
C      0.507690    -0.375839    -0.125408
O      1.376978     0.306313     0.639234
H     -1.257013     0.833975    -0.633223
H     -1.648653    -0.762570    -0.078241
H     -1.136560     0.496439     1.078485
H      0.763125    -0.240609    -1.190473
H      0.627319    -1.433835     0.055970
H      1.732490     1.147825     0.288982
9
Iteration -1, Energy=-154.0883721471, |grad|=0.047570
C     -0.941548     0.066742     0.043317
C      0.504144    -0.367590    -0.132720
O      1.437757     0.306551     0.658650
H     -1.198386     0.888510    -0.644247
H     -1.645508    -0.759896    -0.137369
H     -1.127374     0.405862     1.065468
H      0.773120    -0.266380    -1.191198
H      0.625330    -1.427434     0.078646
H      1.572466     1.153634     0.259453
9
Iteration 1, Energy=-154.0888772477, |grad|=0.029111
C     -0.948596     0.070133     0.045122
C      0.507129    -0.376391    -0.142600
O      1.434942     0.312005     0.656881
H     -1.198157     0.885832    -0.640025
H     -1.641186    -0.756978    -0.140022
H     -1.125608     0.405964     1.065576
H      0.773326    -0.266712    -1.191610
H      0.623909    -1.428559     0.083334
H      1.574243     1.154707     0.263342
9
Iteration 2, Energy=-154.0891280558, |grad|=0.022643
C     -0.948946     0.070064     0.045688
C      0.506236    -0.378391    -0.146253
O      1.430495     0.311787     0.655353
H     -1.198826     0.885229    -0.637058
H     -1.638769    -0.755142    -0.143065
H     -1.123824     0.406415     1.067147
H      0.774410    -0.267523    -1.195487
H      0.622969    -1.431778     0.088349
H      1.576254     1.159340     0.265325
9
Iteration 3, Energy=-154.0894747069, |grad|=0.021548
C     -0.943929     0.068442     0.047845
C      0.500733    -0.384320    -0.154709
O      1.416960     0.318837     0.646335
H     -1.202349     0.886392    -0.627518
H     -1.633449    -0.751155    -0.155313
H     -1.116082     0.406844     1.072902
H      0.778131    -0.272747    -1.211313
H      0.618842    -1.440582     0.105704
H      1.581143     1.168288     0.276066
9
Iteration 4, Energy=-154.0896330144, |grad|=0.022681
C     -0.942818     0.068013     0.047580
C      0.504162    -0.383720    -0.157873
O      1.413663     0.316038     0.646881
H     -1.203659     0.890496    -0.623342
H     -1.634653    -0.751633    -0.161489
H     -1.109732     0.403155     1.073701
H      0.776502    -0.280976    -1.213909
H      0.616069    -1.436473     0.111310
H      1.580465     1.175100     0.277140
9
Iteration 5, Energy=-154.0897553893, |grad|=0.019449
C     -0.942362     0.067299     0.045781
C      0.504944    -0.382204    -0.157879
O      1.414554     0.317023     0.646972
H     -1.204097     0.893510    -0.621046
H     -1.635766    -0.751842    -0.164543
H     -1.105815     0.400012     1.074002
H      0.775377    -0.286647    -1.214839
H      0.614661    -1.433104     0.113472
H      1.578504     1.175953     0.278081
9
Iteration 6, Energy=-154.0901493403, |grad|=0.016866
C     -0.941479     0.068820     0.039072
C      0.502223    -0.377524    -0.159425
O      1.417662     0.324268     0.642152
H     -1.206115     0.912434    -0.602966
H     -1.637762    -0.748736    -0.186568
H     -1.080330     0.375037     1.073147
H      0.772936    -0.322593    -1.223766
H      0.606553    -1.419131     0.133288
H      1.566312     1.187425     0.285065
9
Iteration 7, Energy=-154.0902211942, |grad|=0.033441
C     -0.939605     0.065266     0.027228
C      0.504024    -0.377274    -0.165343
O      1.416985     0.330017     0.630420
H     -1.206580     0.930658    -0.589095
H     -1.634940    -0.739744    -0.202913
H     -1.067320     0.355369     1.082507
H      0.772815    -0.347950    -1.223948
H      0.600206    -1.414681     0.151980
H      1.554415     1.198340     0.289163
9
Iteration 8, Energy=-154.0904069977, |grad|=0.015662
C     -0.939061     0.069320     0.031126
C      0.502777    -0.379818    -0.164173
O      1.417778     0.330300     0.629276
H     -1.205657     0.930547    -0.588709
H     -1.635190    -0.739849    -0.203506
H     -1.068679     0.353361     1.080043
H      0.774302    -0.347342    -1.224364
H      0.600550    -1.415634     0.152176
H      1.553180     1.199114     0.288131
9
Iteration 9, Energy=-154.0905782501, |grad|=0.012873
C     -0.937689     0.074010     0.033112
C      0.501662    -0.383362    -0.163656
O      1.420252     0.331854     0.622505
H     -1.203023     0.937797    -0.583357
H     -1.634090    -0.735246    -0.209820
H     -1.068669     0.342095     1.080049
H      0.777341    -0.354863    -1.223652
H      0.599270    -1.416961     0.158944
H      1.544947     1.204676     0.285875
9
Iteration 10, Energy=-154.0908265672, |grad|=0.020408
C     -0.934194     0.080738     0.033281
C      0.501381    -0.389058    -0.162965
O      1.426758     0.335471     0.607295
H     -1.196058     0.956041    -0.569519
H     -1.631859    -0.723515    -0.225767
H     -1.068672     0.316460     1.083936
H      0.783035    -0.374603    -1.221909
H      0.595572    -1.418869     0.175534
H      1.524037     1.217336     0.280114
9
Iteration 1, Energy=-154.0808494102, |grad|=0.196063
C     -0.929405     0.082718     0.033803
C      0.501709    -0.393154    -0.159666
O      1.376978     0.335777     0.637673
H     -1.257013     0.833975    -0.633223
H     -1.623403    -0.762570    -0.078241
H     -1.068596     0.496439     1.091914
H      0.785947    -0.240609    -1.221510
H      0.594618    -1.420330     0.055970
H      1.732490     1.147825     0.288982
9
Iteration 2, Energy=-154.0799371309, |grad|=0.208897
C     -0.926216     0.084852     0.035614
C      0.502345    -0.398685    -0.158698
O      1.376978     0.336355     0.637673
H     -1.257013     0.833975    -0.633223
H     -1.626164    -0.762570    -0.078241
H     -1.068445     0.496439     1.098255
H      0.788019    -0.240609    -1.222052
H      0.592688    -1.423183     0.055970
H      1.732490     1.147825     0.288982
9
Iteration -1, Energy=-154.0908265672, |grad|=0.020408
C     -0.934194     0.080738     0.033281
C      0.501381    -0.389058    -0.162965
O      1.426758     0.335471     0.607295
H     -1.196058     0.956041    -0.569519
H     -1.631859    -0.723515    -0.225767
H     -1.068672     0.316460     1.083936
H      0.783035    -0.374603    -1.221909
H      0.595572    -1.418869     0.175534
H      1.524037     1.217336     0.280114
9
Iteration 1, Energy=-154.0909178847, |grad|=0.011835
C     -0.934171     0.076967     0.031261
C      0.503042    -0.387068    -0.163264
O      1.427611     0.335475     0.607505
H     -1.194253     0.956317    -0.568380
H     -1.631559    -0.721811    -0.226566
H     -1.070755     0.317717     1.086728
H      0.782412    -0.374813    -1.222092
H      0.595472    -1.419550     0.176015
H      1.522202     1.216766     0.278792
9
Iteration 2, Energy=-154.0909785216, |grad|=0.011967
C     -0.933327     0.075415     0.031811
C      0.504876    -0.387035    -0.162997
O      1.428709     0.335829     0.607565
H     -1.191561     0.956204    -0.566614
H     -1.632172    -0.720965    -0.228415
H     -1.073497     0.318622     1.088109
H      0.781835    -0.374926    -1.222656
H      0.595473    -1.419416     0.176255
H      1.519664     1.216272     0.276942
9
Iteration 3, Energy=-154.0911641163, |grad|=0.016169
C     -0.929643     0.071125     0.037429
C      0.509830    -0.387963    -0.160611
O      1.433878     0.335900     0.606617
H     -1.177144     0.955812    -0.557646
H     -1.634261    -0.716662    -0.238100
H     -1.086614     0.320884     1.091865
H      0.779470    -0.375406    -1.224490
H      0.597288    -1.420393     0.177869
H      1.507196     1.216703     0.267067
9
Iteration 4, Energy=-154.0912354196, |grad|=0.020227
C     -0.928613     0.069895     0.040098
C      0.511241    -0.391178    -0.158640
O      1.436889     0.340052     0.602897
H     -1.167937     0.956657    -0.552390
H     -1.634272    -0.713364    -0.243945
H     -1.094075     0.320595     1.094048
H      0.777644    -0.375738    -1.223738
H      0.599485    -1.421546     0.178900
H      1.499638     1.214626     0.262771
9
Iteration 5, Energy=-154.0913322174, |grad|=0.014200
C     -0.927208     0.069766     0.044050
C      0.511917    -0.393587    -0.156401
O      1.439081     0.340000     0.599975
H     -1.158654     0.957908    -0.547377
H     -1.634413    -0.710412    -0.250015
H     -1.101176     0.319436     1.095136
H      0.775809    -0.376277    -1.222706
H      0.602285    -1.423347     0.180296
H      1.492360     1.216514     0.257043
9
Iteration 6, Energy=-154.0914907318, |grad|=0.011708
C     -0.924973     0.070535     0.050611
C      0.510595    -0.398772    -0.151316
O      1.442417     0.341341     0.591186
H     -1.139930     0.963895    -0.538568
H     -1.633289    -0.703589    -0.262185
H     -1.113755     0.313382     1.097311
H      0.770809    -0.378658    -1.217990
H      0.609990    -1.429175     0.184290
H      1.478137     1.221040     0.246662
9
Iteration 7, Energy=-154.0916110985, |grad|=0.013729
C     -0.924415     0.072237     0.052413
C      0.509713    -0.404580    -0.146175
O      1.444307     0.343768     0.582657
H     -1.123871     0.972182    -0.531270
H     -1.631501    -0.696461    -0.272979
H     -1.122407     0.303975     1.100559
H      0.764154    -0.383452    -1.212969
H      0.617744    -1.433906     0.189191
H      1.466277     1.226236     0.238573
9
Iteration 8, Energy=-154.0917086312, |grad|=0.022611
C     -0.920609     0.072944     0.057800
C      0.506759    -0.408149    -0.141088
O      1.447303     0.351277     0.569875
H     -1.099147     0.989998    -0.520216
H     -1.630196    -0.684217    -0.292491
H     -1.132983     0.283811     1.103894
H      0.751312    -0.396427    -1.205954
H      0.630167    -1.442475     0.200985
H      1.447394     1.233238     0.227194
9
Iteration 9, Energy=-154.0918424995, |grad|=0.012038
C     -0.921343     0.074315     0.053784
C      0.507643    -0.410401    -0.138827
O      1.446493     0.353516     0.567814
H     -1.096050     0.994092    -0.516766
H     -1.629630    -0.680388    -0.296608
H     -1.131505     0.276234     1.105732
H      0.747503    -0.402621    -1.206547
H      0.631700    -1.440629     0.204939
H      1.445189     1.235883     0.226478
9
Iteration 10, Energy=-154.0919822277, |grad|=0.013877
C     -0.920829     0.074867     0.049828
C      0.509478    -0.411657    -0.138193
O      1.445823     0.358091     0.565679
H     -1.091102     1.001023    -0.509727
H     -1.630027    -0.673657    -0.305388
H     -1.128580     0.263195     1.107824
H      0.741364    -0.414958    -1.208601
H      0.632925    -1.436614     0.213380
H      1.440948     1.239710     0.225198
9
Iteration 1, Energy=-154.0760188986, |grad|=0.244212
C     -0.919022     0.076349     0.053352
C      0.510707    -0.416424    -0.135530
O      1.376978     0.363696     0.637673
H     -1.257013     0.833975    -0.633223
H     -1.634030    -0.762570    -0.078241
H     -1.137911     0.496439     1.111163
H      0.727756    -0.240609    -1.209311
H      0.638404    -1.436789     0.055970
H      1.732490     1.147825     0.288982
9
Iteration 2, Energy=-154.0747288881, |grad|=0.258155
C     -0.916407     0.077851     0.056309
C      0.512155    -0.421539    -0.131009
O      1.376978     0.366741     0.637673
H     -1.257013     0.833975    -0.633223
H     -1.635127    -0.762570    -0.078241
H     -1.147029     0.496439     1.111163
H      0.723769    -0.240609    -1.206218
H      0.642906    -1.440412     0.055970
H      1.732490     1.147825     0.288982
9
Iteration -1, Energy=-154.0919822277, |grad|=0.013877
C     -0.920829     0.074867     0.049828
C      0.509478    -0.411657    -0.138193
O      1.445823     0.358091     0.565679
H     -1.091102     1.001023    -0.509727
H     -1.630027    -0.673657    -0.305388
H     -1.128580     0.263195     1.107824
H      0.741364    -0.414958    -1.208601
H      0.632925    -1.436614     0.213380
H      1.440948     1.239710     0.225198
9
Iteration 1, Energy=-154.0920333844, |grad|=0.009900
C     -0.919411     0.074332     0.052653
C      0.509087    -0.410355    -0.140369
O      1.445903     0.357811     0.566007
H     -1.091659     1.000704    -0.508311
H     -1.631076    -0.673656    -0.307146
H     -1.127875     0.262856     1.106482
H      0.742504    -0.416337    -1.209385
H      0.631665    -1.435592     0.214958
H      1.440861     1.240236     0.225111
9
Iteration 2, Energy=-154.0920788232, |grad|=0.009897
C     -0.918654     0.073366     0.053408
C      0.509194    -0.409742    -0.141769
O      1.445839     0.358243     0.565665
H     -1.092447     0.999876    -0.505597
H     -1.631788    -0.672849    -0.309258
H     -1.126880     0.262403     1.106289
H      0.744236    -0.418330    -1.211088
H      0.629644    -1.433405     0.216987
H      1.440856     1.240437     0.225363
9
Iteration 3, Energy=-154.0921574649, |grad|=0.018129
C     -0.918415     0.069794     0.052277
C      0.511251    -0.407308    -0.147040
O      1.445036     0.357344     0.563618
H     -1.096078     0.998919    -0.494493
H     -1.633386    -0.668860    -0.317434
H     -1.122151     0.258686     1.107831
H      0.751123    -0.427219    -1.216190
H      0.621739    -1.426016     0.226094
H      1.440880     1.244659     0.225337
9
Iteration 4, Energy=-154.0922007866, |grad|=0.014772
C     -0.917883     0.069338     0.051547
C      0.510917    -0.408408    -0.148729
O      1.445258     0.362619     0.560085
H     -1.098780     1.000658    -0.488344
H     -1.634479    -0.667143    -0.322639
H     -1.118718     0.254503     1.108480
H      0.755430    -0.432998    -1.218811
H      0.617254    -1.422058     0.231435
H      1.441001     1.243489     0.226976
9
Iteration 5, Energy=-154.0922345947, |grad|=0.007886
C     -0.918457     0.070166     0.050677
C      0.510790    -0.408663    -0.147536
O      1.445267     0.361451     0.560214
H     -1.098524     1.001953    -0.489752
H     -1.633953    -0.667498    -0.321607
H     -1.119002     0.253892     1.108668
H      0.754540    -0.432339    -1.217621
H      0.618445    -1.423525     0.230610
H      1.440894     1.244563     0.226348
9
Iteration 6, Energy=-154.0922776438, |grad|=0.006234
C     -0.919253     0.071512     0.048810
C      0.510447    -0.409030    -0.146817
O      1.445448     0.361374     0.558586
H     -1.099703     1.006067    -0.488560
H     -1.633516    -0.666928    -0.323002
H     -1.117337     0.249456     1.109136
H      0.755359    -0.435104    -1.216411
H      0.618041    -1.424293     0.232728
H      1.440515     1.246946     0.225529
9
Iteration 7, Energy=-154.0923273732, |grad|=0.008122
C     -0.919849     0.073488     0.046275
C      0.509944    -0.409294    -0.147124
O      1.446005     0.362981     0.554897
H     -1.102509     1.013524    -0.483379
H     -1.633213    -0.664742    -0.327959
H     -1.113377     0.239711     1.109471
H      0.758259    -0.442811    -1.215213
H      0.615356    -1.423537     0.238863
H      1.439385     1.250679     0.224169
9
Iteration 8, Energy=-154.0923785351, |grad|=0.006961
C     -0.918631     0.075328     0.044619
C      0.510106    -0.408843    -0.147055
O      1.447021     0.365852     0.551116
H     -1.103785     1.021229    -0.475344
H     -1.632226    -0.660060    -0.334933
H     -1.110922     0.227004     1.108789
H      0.760160    -0.453204    -1.213945
H      0.612272    -1.420628     0.246004
H      1.436005     1.253323     0.220749
9
Iteration 9, Energy=-154.0924286209, |grad|=0.014600
C     -0.916981     0.078379     0.043668
C      0.510851    -0.410568    -0.149641
O      1.449530     0.372463     0.544666
H     -1.099038     1.033447    -0.459473
H     -1.629224    -0.650912    -0.350991
H     -1.113233     0.206469     1.111796
H      0.760673    -0.469138    -1.210917
H      0.609658    -1.418040     0.259778
H      1.427763     1.257899     0.211113
9
Iteration 10, Energy=-154.0924990536, |grad|=0.007682
C     -0.914379     0.078598     0.045369
C      0.511629    -0.410840    -0.146740
O      1.450264     0.376966     0.538744
H     -1.094297     1.041393    -0.447042
H     -1.627151    -0.643107    -0.363548
H     -1.115979     0.191988     1.112153
H      0.761044    -0.480822    -1.211534
H      0.607730    -1.414273     0.269056
H      1.421139     1.260097     0.203542
9
Iteration 1, Energy=-154.0724804090, |grad|=0.315870
C     -0.911452     0.080127     0.045907
C      0.512982    -0.413019    -0.146766
O      1.376978     0.384019     0.637673
H     -1.257013     0.833975    -0.633223
H     -1.624464    -0.762570    -0.078241
H     -1.118491     0.496439     1.111163
H      0.762316    -0.240609    -1.210015
H      0.605222    -1.409784     0.055970
H      1.732490     1.147825     0.288982
9
Iteration 2, Energy=-154.0705920767, |grad|=0.342666
C     -0.909724     0.081259     0.047007
C      0.515415    -0.416550    -0.146446
O      1.376978     0.389509     0.637673
H     -1.257013     0.833975    -0.633223
H     -1.623893    -0.762570    -0.078241
H     -1.122360     0.496439     1.111163
H      0.765544    -0.240609    -1.208771
H      0.601741    -1.407359     0.055970
H      1.732490     1.147825     0.288982
9
Iteration -1, Energy=-154.0924990536, |grad|=0.007682
C     -0.914379     0.078598     0.045369
C      0.511629    -0.410840    -0.146740
O      1.450264     0.376966     0.538744
H     -1.094297     1.041393    -0.447042
H     -1.627151    -0.643107    -0.363548
H     -1.115979     0.191988     1.112153
H      0.761044    -0.480822    -1.211534
H      0.607730    -1.414273     0.269056
H      1.421139     1.260097     0.203542
9
Iteration 1, Energy=-154.0925148749, |grad|=0.005896
C     -0.914838     0.077704     0.045246
C      0.511897    -0.410699    -0.145211
O      1.449771     0.376104     0.537997
H     -1.093097     1.040613    -0.446262
H     -1.626957    -0.642463    -0.364015
H     -1.116765     0.192581     1.112127
H      0.760737    -0.480317    -1.211809
H      0.608223    -1.414100     0.268942
H      1.421029     1.260576     0.202985
9
Iteration 2, Energy=-154.0925309006, |grad|=0.006231
C     -0.915021     0.076663     0.045754
C      0.511825    -0.410825    -0.144326
O      1.449530     0.376201     0.537050
H     -1.091128     1.039512    -0.445129
H     -1.626995    -0.641823    -0.365030
H     -1.118173     0.193471     1.111967
H      0.760034    -0.479492    -1.211591
H      0.609102    -1.414107     0.268940
H      1.420828     1.260400     0.202364
9
Iteration 3, Energy=-154.0925684364, |grad|=0.009805
C     -0.914792     0.073006     0.048624
C      0.511073    -0.411883    -0.142801
O      1.449647     0.375780     0.534983
H     -1.082296     1.035750    -0.440782
H     -1.627966    -0.639906    -0.370032
H     -1.124982     0.196860     1.112009
H      0.756228    -0.475998    -1.209862
H      0.613520    -1.414921     0.269371
H      1.419568     1.261311     0.198490
9
Iteration 4, Energy=-154.0925823745, |grad|=0.011613
C     -0.915283     0.070750     0.050307
C      0.511269    -0.414308    -0.140124
O      1.450300     0.379387     0.533186
H     -1.074929     1.034962    -0.438449
H     -1.628746    -0.638454    -0.374049
H     -1.131173     0.198162     1.113455
H      0.752393    -0.473603    -1.209655
H      0.617777    -1.416312     0.269574
H      1.418393     1.259416     0.195755
9
Iteration 5, Energy=-154.0925996873, |grad|=0.004779
C     -0.915073     0.071583     0.050516
C      0.511369    -0.413773    -0.141137
O      1.450436     0.378628     0.534114
H     -1.075820     1.035805    -0.439183
H     -1.628795    -0.638825    -0.373615
H     -1.130599     0.197341     1.113360
H      0.752527    -0.474176    -1.209443
H      0.617600    -1.416739     0.269785
H      1.418355     1.260156     0.195602
9
Iteration 6, Energy=-154.0926094290, |grad|=0.003216
C     -0.915007     0.072111     0.051064
C      0.511604    -0.413970    -0.141150
O      1.450726     0.378809     0.534724
H     -1.074599     1.036875    -0.439459
H     -1.628961    -0.638669    -0.374242
H     -1.131921     0.196322     1.113816
H      0.751386    -0.474297    -1.209221
H      0.618882    -1.417711     0.270072
H      1.417889     1.260530     0.194395
9
Iteration 7, Energy=-154.0926182009, |grad|=0.003707
C     -0.915009     0.072516     0.051756
C      0.511830    -0.414525    -0.140222
O      1.450867     0.379486     0.534949
H     -1.071915     1.038151    -0.439316
H     -1.628932    -0.637777    -0.375487
H     -1.134572     0.194723     1.114436
H      0.749336    -0.474329    -1.208829
H      0.621293    -1.418933     0.270406
H      1.417101     1.260689     0.192307
9
Iteration 8, Energy=-154.0926291707, |grad|=0.003150
C     -0.914661     0.073049     0.052454
C      0.511601    -0.415145    -0.138677
O      1.450353     0.380520     0.534491
H     -1.068361     1.039733    -0.438270
H     -1.628104    -0.635317    -0.377137
H     -1.138093     0.191318     1.114523
H      0.746687    -0.475163    -1.207492
H      0.624536    -1.419602     0.270928
H      1.416043     1.260607     0.189179
9
Iteration 9, Energy=-154.0926403107, |grad|=0.004445
C     -0.913972     0.073402     0.053026
C      0.511802    -0.415201    -0.136203
O      1.449936     0.382517     0.533389
H     -1.063897     1.041877    -0.434236
H     -1.627954    -0.632012    -0.381879
H     -1.142226     0.185991     1.115436
H      0.744460    -0.477763    -1.206930
H      0.627131    -1.419575     0.273217
H      1.414719     1.260762     0.184180
9
Iteration 10, Energy=-154.0926553915, |grad|=0.004356
C     -0.914195     0.072798     0.053925
C      0.512216    -0.415974    -0.134272
O      1.449369     0.385267     0.531658
H     -1.059088     1.045149    -0.428235
H     -1.626893    -0.626840    -0.388067
H     -1.146519     0.178519     1.115914
H      0.742464    -0.481804    -1.205408
H      0.629314    -1.418358     0.276696
H      1.413334     1.261244     0.177789
9
Iteration 1, Energy=-154.0716146192, |grad|=0.318670
C     -0.913941     0.072004     0.055449
C      0.512473    -0.417273    -0.131035
O      1.376978     0.388546     0.637673
H     -1.257013     0.833975    -0.633223
H     -1.626555    -0.762570    -0.078241
H     -1.152934     0.496439     1.111163
H      0.737957    -0.240609    -1.203835
H      0.635118    -1.417744     0.055970
H      1.732490     1.147825     0.288982
9
Iteration 2, Energy=-154.0693563157, |grad|=0.328456
C     -0.913363     0.072691     0.056163
C      0.512703    -0.418345    -0.129748
O      1.371017     0.391450     0.644356
H     -1.266316     0.820091    -0.644614
H     -1.625860    -0.769255    -0.059379
H     -1.157027     0.515941     1.111163
H      0.735700    -0.223520    -1.202149
H      0.637498    -1.417867     0.041208
H      1.756999     1.139452     0.291231
9
Iteration -1, Energy=-154.0926553915, |grad|=0.004356
C     -0.914195     0.072798     0.053925
C      0.512216    -0.415974    -0.134272
O      1.449369     0.385267     0.531658
H     -1.059088     1.045149    -0.428235
H     -1.626893    -0.626840    -0.388067
H     -1.146519     0.178519     1.115914
H      0.742464    -0.481804    -1.205408
H      0.629314    -1.418358     0.276696
H      1.413334     1.261244     0.177789
9
Iteration 1, Energy=-154.0926593173, |grad|=0.002685
C     -0.914044     0.072774     0.054162
C      0.511893    -0.416061    -0.135014
O      1.449497     0.385346     0.531570
H     -1.059222     1.045130    -0.427834
H     -1.626995    -0.626938    -0.388414
H     -1.146363     0.178525     1.115757
H      0.742714    -0.481820    -1.205036
H      0.629080    -1.418378     0.277062
H      1.413440     1.261422     0.177748
9
Iteration 2, Energy=-154.0926635188, |grad|=0.002801
C     -0.914000     0.072555     0.054168
C      0.511485    -0.416273    -0.135637
O      1.449558     0.385416     0.531070
H     -1.059555     1.045120    -0.426839
H     -1.627084    -0.626982    -0.389116
H     -1.145966     0.178493     1.115622
H      0.743387    -0.481906    -1.204720
H      0.628460    -1.418222     0.277781
H      1.413715     1.261799     0.177671
9
Iteration 3, Energy=-154.0926698594, |grad|=0.003053
C     -0.914220     0.071974     0.053956
C      0.511101    -0.416400    -0.136226
O      1.449542     0.385583     0.529804
H     -1.060363     1.045321    -0.424601
H     -1.627242    -0.626955    -0.390680
H     -1.145018     0.178172     1.115423
H      0.744940    -0.482341    -1.204519
H      0.626958    -1.417809     0.279390
H      1.414302     1.262455     0.177454
9
Iteration 4, Energy=-154.0926765009, |grad|=0.003402
C     -0.914445     0.071918     0.053041
C      0.511221    -0.416576    -0.136557
O      1.450065     0.386030     0.529048
H     -1.061827     1.046415    -0.421465
H     -1.627579    -0.626774    -0.393003
H     -1.143803     0.176290     1.115676
H      0.746876    -0.484074    -1.204793
H      0.624668    -1.416524     0.281628
H      1.414823     1.263294     0.176426
9
Iteration 5, Energy=-154.0926807262, |grad|=0.003997
C     -0.915007     0.071206     0.052580
C      0.511794    -0.415364    -0.136877
O      1.450275     0.387327     0.527481
H     -1.063943     1.048836    -0.417479
H     -1.627556    -0.625824    -0.396035
H     -1.142153     0.172723     1.115388
H      0.749419    -0.487115    -1.205072
H      0.621645    -1.415165     0.284969
H      1.415524     1.263376     0.175044
9
Iteration 6, Energy=-154.0926848555, |grad|=0.002140
C     -0.914822     0.071935     0.052349
C      0.511982    -0.415354    -0.136525
O      1.450191     0.387005     0.527895
H     -1.064012     1.049148    -0.417499
H     -1.627348    -0.625483    -0.395984
H     -1.142385     0.171643     1.115472
H      0.749166    -0.487745    -1.205059
H      0.621833    -1.414786     0.284898
H      1.415395     1.263637     0.174454
9
Iteration 7, Energy=-154.0926875185, |grad|=0.002019
C     -0.914559     0.072689     0.052104
C      0.512039    -0.415344    -0.136236
O      1.450119     0.387295     0.528171
H     -1.064164     1.049811    -0.417358
H     -1.626955    -0.624844    -0.396071
H     -1.142697     0.169943     1.115543
H      0.748909    -0.488745    -1.204915
H      0.622002    -1.414288     0.285005
H      1.415306     1.263485     0.173758
9
Iteration 8, Energy=-154.0926900409, |grad|=0.002499
C     -0.914319     0.073170     0.051937
C      0.511901    -0.414986    -0.136162
O      1.449895     0.387706     0.527946
H     -1.064610     1.051346    -0.416024
H     -1.626217    -0.623506    -0.397162
H     -1.142972     0.166775     1.115488
H      0.749124    -0.490670    -1.204429
H      0.621724    -1.413578     0.286200
H      1.415473     1.263744     0.172207
9
Iteration 9, Energy=-154.0926924886, |grad|=0.002474
C     -0.914097     0.074049     0.052040
C      0.511636    -0.415158    -0.136040
O      1.449531     0.389011     0.526997
H     -1.064726     1.052884    -0.413698
H     -1.625503    -0.621983    -0.399273
H     -1.143587     0.162997     1.115399
H      0.749401    -0.492766    -1.203678
H      0.621433    -1.412805     0.287962
H      1.415913     1.263771     0.170289
9
Iteration 10, Energy=-154.0926945363, |grad|=0.001973
C     -0.914134     0.073777     0.052129
C      0.511402    -0.415123    -0.136065
O      1.449477     0.389384     0.526525
H     -1.064469     1.053462    -0.412551
H     -1.625270    -0.621356    -0.400405
H     -1.144017     0.161883     1.115485
H      0.749482    -0.493323    -1.203342
H      0.621385    -1.412755     0.288851
H      1.416145     1.264052     0.169374
9
Iteration 1, Energy=-154.0713669226, |grad|=0.327825
C     -0.914187     0.073515     0.052266
C      0.511274    -0.415208    -0.135834
O      1.376978     0.390282     0.637673
H     -1.257013     0.833975    -0.633223
H     -1.624905    -0.762570    -0.078241
H     -1.145111     0.496439     1.111163
H      0.749939    -0.240609    -1.202637
H      0.621075    -1.412066     0.055970
H      1.732490     1.147825     0.288982
9
Iteration 2, Energy=-154.0677537490, |grad|=0.342198
C     -0.914095     0.073577     0.052515
C      0.511266    -0.415482    -0.135154
O      1.368203     0.391203     0.649966
H     -1.280173     0.809507    -0.656453
H     -1.624647    -0.777941    -0.042409
H     -1.146592     0.532759     1.110678
H      0.749230    -0.212619    -1.202094
H      0.622001    -1.411779     0.030440
H      1.770693     1.134430     0.300979
9
Iteration -1, Energy=-154.0926945363, |grad|=0.001973
C     -0.914134     0.073777     0.052129
C      0.511402    -0.415123    -0.136065
O      1.449477     0.389384     0.526525
H     -1.064469     1.053462    -0.412551
H     -1.625270    -0.621356    -0.400405
H     -1.144017     0.161883     1.115485
H      0.749482    -0.493323    -1.203342
H      0.621385    -1.412755     0.288851
H      1.416145     1.264052     0.169374
9
Iteration 1, Energy=-154.0926958520, |grad|=0.002790
C     -0.914390     0.073226     0.052154
C      0.511669    -0.414985    -0.135665
O      1.449626     0.389052     0.526602
H     -1.063933     1.053443    -0.412208
H     -1.625470    -0.621349    -0.400908
H     -1.144417     0.162168     1.115700
H      0.749261    -0.493120    -1.203563
H      0.621536    -1.412883     0.288990
H      1.416117     1.264449     0.168899
9
Iteration 2, Energy=-154.0926972920, |grad|=0.001908
C     -0.914479     0.073018     0.052274
C      0.511745    -0.415080    -0.135560
O      1.449763     0.389321     0.526532
H     -1.063539     1.053364    -0.411936
H     -1.625637    -0.621383    -0.401300
H     -1.144727     0.162334     1.115785
H      0.749081    -0.492959    -1.203595
H      0.621665    -1.412953     0.289080
H      1.416127     1.264339     0.168719
9
Iteration 3, Energy=-154.0927001379, |grad|=0.001470
C     -0.914716     0.072318     0.052844
C      0.511921    -0.415453    -0.135257
O      1.450201     0.390009     0.526304
H     -1.061817     1.052953    -0.410748
H     -1.626245    -0.621426    -0.402923
H     -1.146142     0.162890     1.116036
H      0.748264    -0.492278    -1.203478
H      0.622368    -1.413252     0.289484
H      1.416165     1.264241     0.167739
9
Iteration 4, Energy=-154.0927016305, |grad|=0.001600
C     -0.914764     0.071912     0.053059
C      0.511768    -0.415672    -0.134859
O      1.450118     0.390269     0.525956
H     -1.060765     1.052795    -0.410087
H     -1.626202    -0.621036    -0.403640
H     -1.147149     0.162847     1.116065
H      0.747725    -0.491938    -1.203201
H      0.623043    -1.413374     0.289678
H      1.416227     1.264196     0.167029
9
Iteration 5, Energy=-154.0927039823, |grad|=0.002463
C     -0.914712     0.071533     0.054305
C      0.511429    -0.416174    -0.134106
O      1.449685     0.390783     0.525281
H     -1.057604     1.052648    -0.408303
H     -1.626011    -0.619788    -0.405821
H     -1.150409     0.161879     1.115890
H      0.745887    -0.491266    -1.202032
H      0.625397    -1.413898     0.290375
H      1.416337     1.264282     0.164409
9
Iteration 6, Energy=-154.0927057885, |grad|=0.001369
C     -0.914698     0.071411     0.054106
C      0.511267    -0.416380    -0.133315
O      1.449498     0.391151     0.525171
H     -1.056696     1.053079    -0.407864
H     -1.625610    -0.618977    -0.406308
H     -1.151641     0.160900     1.116228
H      0.745245    -0.491407    -1.201885
H      0.626282    -1.413934     0.290543
H      1.416352     1.264156     0.163325
9
Iteration 7, Energy=-154.0927066977, |grad|=0.001136
C     -0.914684     0.071602     0.054169
C      0.511339    -0.416294    -0.133158
O      1.449399     0.391294     0.525311
H     -1.056640     1.053557    -0.407895
H     -1.625401    -0.618637    -0.406373
H     -1.151940     0.160109     1.116279
H      0.745084    -0.491775    -1.201841
H      0.626513    -1.413931     0.290634
H      1.416331     1.264075     0.162874
9
Iteration 8, Energy=-154.0927079720, |grad|=0.001483
C     -0.914564     0.072252     0.054293
C      0.511528    -0.416262    -0.132727
O      1.449301     0.391814     0.525589
H     -1.056196     1.054478    -0.407199
H     -1.625182    -0.617845    -0.407286
H     -1.152936     0.158039     1.116524
H      0.744657    -0.492722    -1.201610
H      0.627022    -1.413768     0.291123
H      1.416371     1.264013     0.161292
9
Iteration 9, Energy=-154.0927091214, |grad|=0.001761
C     -0.914691     0.071993     0.054744
C      0.511660    -0.416010    -0.132454
O      1.449272     0.392615     0.525554
H     -1.055485     1.055587    -0.405938
H     -1.624934    -0.616775    -0.408761
H     -1.154085     0.156002     1.116592
H      0.744274    -0.493638    -1.201162
H      0.627437    -1.413660     0.292005
H      1.416553     1.263886     0.159419
9
Iteration 10, Energy=-154.0927105096, |grad|=0.001662
C     -0.914753     0.071963     0.054920
C      0.511735    -0.416027    -0.132166
O      1.449244     0.393155     0.525341
H     -1.055059     1.056077    -0.404643
H     -1.624916    -0.616157    -0.410057
H     -1.154732     0.154698     1.116638
H      0.744215    -0.494242    -1.200878
H      0.627479    -1.413390     0.292723
H      1.416787     1.263923     0.158122
9
Iteration 1, Energy=-154.0699580928, |grad|=0.345830
C     -0.915351     0.071627     0.056213
C      0.512410    -0.416333    -0.129842
O      1.376978     0.396102     0.637673
H     -1.257013     0.833975    -0.633223
H     -1.623968    -0.762570    -0.078241
H     -1.160446     0.496439     1.111163
H      0.742680    -0.240609    -1.198524
H      0.629337    -1.410510     0.055970
H      1.732490     1.147825     0.288982
9
Iteration 2, Energy=-154.0679939882, |grad|=0.352738
C     -0.915330     0.071633     0.056534
C      0.512328    -0.416422    -0.129320
O      1.371957     0.396977     0.644790
H     -1.268898     0.820134    -0.646478
H     -1.623591    -0.770858    -0.058291
H     -1.162005     0.516738     1.110984
H      0.742137    -0.224481    -1.197925
H      0.629999    -1.410279     0.041300
H      1.753911     1.139995     0.295029
9
Iteration -1, Energy=-154.0927105096, |grad|=0.001662
C     -0.914753     0.071963     0.054920
C      0.511735    -0.416027    -0.132166
O      1.449244     0.393155     0.525341
H     -1.055059     1.056077    -0.404643
H     -1.624916    -0.616157    -0.410057
H     -1.154732     0.154698     1.116638
H      0.744215    -0.494242    -1.200878
H      0.627479    -1.413390     0.292723
H      1.416787     1.263923     0.158122
9
Iteration 1, Energy=-154.0927111894, |grad|=0.001091
C     -0.914699     0.072046     0.054700
C      0.511614    -0.416172    -0.132078
O      1.449190     0.393133     0.525165
H     -1.055105     1.055899    -0.404351
H     -1.624930    -0.616164    -0.410180
H     -1.154669     0.154726     1.116680
H      0.744358    -0.494210    -1.200865
H      0.627364    -1.413270     0.292813
H      1.416878     1.264011     0.158116
9
Iteration 2, Energy=-154.0927118887, |grad|=0.001062
C     -0.914691     0.071946     0.054568
C      0.511444    -0.416243    -0.132137
O      1.449113     0.393108     0.524861
H     -1.055213     1.055748    -0.403857
H     -1.624942    -0.616144    -0.410444
H     -1.154509     0.154765     1.116615
H      0.744634    -0.494186    -1.200771
H      0.627114    -1.413145     0.293077
H      1.417049     1.264150     0.158090
9
Iteration 3, Energy=-154.0927128153, |grad|=0.000923
C     -0.914841     0.071589     0.054498
C      0.511337    -0.416292    -0.132276
O      1.449063     0.393210     0.524358
H     -1.055506     1.055770    -0.402899
H     -1.625019    -0.616120    -0.411089
H     -1.154137     0.154683     1.116464
H      0.745214    -0.494293    -1.200723
H      0.626496    -1.412885     0.293706
H      1.417394     1.264339     0.157960
9
Iteration 4, Energy=-154.0927131490, |grad|=0.001259
C     -0.914847     0.071532     0.054369
C      0.511306    -0.416134    -0.132497
O      1.449129     0.393153     0.524302
H     -1.055730     1.055890    -0.402323
H     -1.625120    -0.616131    -0.411522
H     -1.153955     0.154418     1.116498
H      0.745522    -0.494518    -1.200686
H      0.626131    -1.412778     0.294163
H      1.417564     1.264569     0.157698
9
Iteration 5, Energy=-154.0927135836, |grad|=0.000833
C     -0.914951     0.071410     0.054344
C      0.511360    -0.416088    -0.132592
O      1.449193     0.393369     0.524170
H     -1.055971     1.056136    -0.401815
H     -1.625184    -0.616099    -0.411937
H     -1.153765     0.154087     1.116474
H      0.745824    -0.494781    -1.200725
H      0.625749    -1.412597     0.294568
H      1.417746     1.264564     0.157512
9
Iteration 6, Energy=-154.0927141296, |grad|=0.000811
C     -0.915100     0.071371     0.054289
C      0.511525    -0.415989    -0.132596
O      1.449265     0.393618     0.524113
H     -1.056371     1.056667    -0.401145
H     -1.625209    -0.615951    -0.412500
H     -1.153551     0.153283     1.116459
H      0.746207    -0.495347    -1.200814
H      0.625242    -1.412244     0.295122
H      1.417992     1.264593     0.157072
9
Iteration 7, Energy=-154.0927147155, |grad|=0.001229
C     -0.915083     0.071605     0.054101
C      0.511561    -0.415760    -0.132712
O      1.449310     0.394087     0.524074
H     -1.056904     1.057387    -0.400260
H     -1.625125    -0.615604    -0.413195
H     -1.153425     0.151850     1.116485
H      0.746613    -0.496258    -1.200719
H      0.624723    -1.411800     0.295860
H      1.418329     1.264493     0.156366
9
Iteration 8, Energy=-154.0927152722, |grad|=0.000807
C     -0.915113     0.071834     0.053988
C      0.511602    -0.415643    -0.132557
O      1.449181     0.394286     0.523996
H     -1.057344     1.058102    -0.399462
H     -1.624869    -0.615076    -0.413788
H     -1.153426     0.150325     1.116413
H      0.746928    -0.497134    -1.200575
H      0.624368    -1.411284     0.296460
H      1.418673     1.264589     0.155525
9
Iteration 9, Energy=-154.0927156227, |grad|=0.000532
C     -0.915014     0.072038     0.053944
C      0.511479    -0.415582    -0.132462
O      1.449039     0.394417     0.523907
H     -1.057372     1.058333    -0.399110
H     -1.624661    -0.614714    -0.414060
H     -1.153670     0.149547     1.116404
H      0.746916    -0.497479    -1.200348
H      0.624438    -1.411160     0.296687
H      1.418845     1.264600     0.155039
9
Iteration 10, Energy=-154.0927160340, |grad|=0.000679
C     -0.914957     0.072157     0.053992
C      0.511331    -0.415623    -0.132301
O      1.448895     0.394624     0.523763
H     -1.057171     1.058555    -0.398574
H     -1.624423    -0.614242    -0.414573
H     -1.154190     0.148703     1.116428
H      0.746776    -0.497758    -1.200023
H      0.624651    -1.411076     0.296981
H      1.419089     1.264660     0.154307
9
Iteration 1, Energy=-154.0677880480, |grad|=0.373767
C     -0.914929     0.073031     0.056759
C      0.507400    -0.418471    -0.124142
O      1.376978     0.398982     0.637673
H     -1.257013     0.833975    -0.633223
H     -1.618649    -0.762570    -0.078241
H     -1.171031     0.496439     1.111163
H      0.740824    -0.240609    -1.192769
H      0.634903    -1.403957     0.055970
H      1.732490     1.147825     0.288982
9
Iteration 2, Energy=-154.0666060834, |grad|=0.389613
C     -0.915565     0.073434     0.058020
C      0.506944    -0.417380    -0.121146
O      1.375020     0.405856     0.637673
H     -1.257013     0.833975    -0.633223
H     -1.615590    -0.762570    -0.078241
H     -1.171031     0.496439     1.110965
H      0.741444    -0.240609    -1.187848
H      0.634853    -1.398985     0.055970
H      1.738124     1.147825     0.288982
9
Iteration -1, Energy=-154.0927160340, |grad|=0.000679
C     -0.914957     0.072157     0.053992
C      0.511331    -0.415623    -0.132301
O      1.448895     0.394624     0.523763
H     -1.057171     1.058555    -0.398574
H     -1.624423    -0.614242    -0.414573
H     -1.154190     0.148703     1.116428
H      0.746776    -0.497758    -1.200023
H      0.624651    -1.411076     0.296981
H      1.419089     1.264660     0.154307
9
Iteration 1, Energy=-154.0927162279, |grad|=0.000794
C     -0.915048     0.071951     0.054156
C      0.511412    -0.415578    -0.132236
O      1.448944     0.394778     0.523708
H     -1.056997     1.058599    -0.398486
H     -1.624495    -0.614259    -0.414770
H     -1.154331     0.148792     1.116428
H      0.746701    -0.497677    -1.200079
H      0.624704    -1.411169     0.297049
H      1.419112     1.264564     0.154231
9
Iteration 2, Energy=-154.0927164305, |grad|=0.000646
C     -0.915106     0.071844     0.054218
C      0.511468    -0.415599    -0.132161
O      1.448993     0.394792     0.523708
H     -1.056799     1.058564    -0.398346
H     -1.624568    -0.614278    -0.414977
H     -1.154511     0.148873     1.116483
H      0.746609    -0.497582    -1.200106
H      0.624783    -1.411223     0.297107
H      1.419133     1.264609     0.154075
9
Iteration 3, Energy=-154.0927167958, |grad|=0.000838
C     -0.915222     0.071561     0.054344
C      0.511493    -0.415854    -0.131932
O      1.449157     0.395057     0.523626
H     -1.055986     1.058332    -0.397733
H     -1.624762    -0.614259    -0.415747
H     -1.155310     0.149094     1.116699
H      0.746201    -0.497194    -1.200039
H      0.625181    -1.411356     0.297298
H      1.419247     1.264619     0.153484
9
Iteration 4, Energy=-154.0927170053, |grad|=0.000911
C     -0.915256     0.071316     0.054561
C      0.511437    -0.415814    -0.131777
O      1.449067     0.394966     0.523539
H     -1.055516     1.058304    -0.397445
H     -1.624698    -0.614052    -0.416075
H     -1.155821     0.149026     1.116628
H      0.745935    -0.497030    -1.199854
H      0.625529    -1.411441     0.297406
H      1.419323     1.264725     0.153017
9
Iteration 5, Energy=-154.0927171570, |grad|=0.000595
C     -0.915227     0.071369     0.054564
C      0.511388    -0.415847    -0.131718
O      1.449001     0.395013     0.523491
H     -1.055459     1.058307    -0.397414
H     -1.624629    -0.613963    -0.416075
H     -1.155922     0.148907     1.116598
H      0.745882    -0.497041    -1.199785
H      0.625621    -1.411414     0.297396
H      1.419345     1.264670     0.152944
9
Iteration 6, Energy=-154.0927174188, |grad|=0.000460
C     -0.915171     0.071430     0.054672
C      0.511262    -0.415926    -0.131503
O      1.448839     0.395209     0.523385
H     -1.055044     1.058367    -0.397176
H     -1.624442    -0.613630    -0.416303
H     -1.156517     0.148471     1.116553
H      0.745566    -0.497028    -1.199529
H      0.626063    -1.411412     0.297452
H      1.419443     1.264519     0.152449
9
Iteration 7, Energy=-154.0927175677, |grad|=0.000476
C     -0.915174     0.071459     0.054766
C      0.511258    -0.415961    -0.131327
O      1.448785     0.395356     0.523402
H     -1.054752     1.058507    -0.397001
H     -1.624358    -0.613420    -0.416543
H     -1.156957     0.148102     1.116586
H      0.745337    -0.497070    -1.199425
H      0.626350    -1.411426     0.297530
H      1.419512     1.264452     0.152012
9
Iteration 8, Energy=-154.0927177401, |grad|=0.001079
C     -0.915158     0.071624     0.054921
C      0.511282    -0.415826    -0.131188
O      1.448728     0.395802     0.523511
H     -1.054262     1.058923    -0.396384
H     -1.624246    -0.612940    -0.417292
H     -1.157844     0.146992     1.116731
H      0.744956    -0.497394    -1.199108
H      0.626797    -1.411488     0.297932
H      1.419748     1.264307     0.150876
9
Iteration 9, Energy=-154.0927179816, |grad|=0.000440
C     -0.915252     0.071516     0.055036
C      0.511349    -0.415917    -0.130858
O      1.448705     0.395971     0.523525
H     -1.053988     1.059187    -0.396022
H     -1.624196    -0.612684    -0.417744
H     -1.158288     0.146507     1.116791
H      0.744801    -0.497509    -1.199094
H      0.626974    -1.411400     0.298109
H      1.419894     1.264328     0.150257
9
Iteration 10, Energy=-154.0927181422, |grad|=0.000463
C     -0.915308     0.071454     0.055063
C      0.511386    -0.415911    -0.130769
O      1.448707     0.396082     0.523505
H     -1.053976     1.059346    -0.395691
H     -1.624207    -0.612560    -0.418078
H     -1.158387     0.146185     1.116818
H      0.744857    -0.497660    -1.199076
H      0.626899    -1.411309     0.298310
H      1.420028     1.264373     0.149918
9
Iteration 1, Energy=-154.0698968344, |grad|=0.347015
C     -0.915357     0.071407     0.055303
C      0.511195    -0.416087    -0.130047
O      1.376978     0.396622     0.637673
H     -1.257013     0.833975    -0.633223
H     -1.623846    -0.762570    -0.078241
H     -1.159787     0.496439     1.111163
H      0.744535    -0.240609    -1.198525
H      0.627466    -1.410682     0.055970
H      1.732490     1.147825     0.288982
9
Iteration 2, Energy=-154.0671087636, |grad|=0.359518
C     -0.915373     0.071464     0.055570
C      0.510877    -0.416337    -0.129285
O      1.371205     0.397097     0.646755
H     -1.272829     0.816111    -0.651723
H     -1.623350    -0.774283    -0.051623
H     -1.161411     0.523962     1.110770
H      0.743963    -0.220105    -1.197866
H      0.628400    -1.410081     0.036832
H      1.757657     1.138464     0.299399
9
Iteration -1, Energy=-154.0927181422, |grad|=0.000463
C     -0.915308     0.071454     0.055063
C      0.511386    -0.415911    -0.130769
O      1.448707     0.396082     0.523505
H     -1.053976     1.059346    -0.395691
H     -1.624207    -0.612560    -0.418078
H     -1.158387     0.146185     1.116818
H      0.744857    -0.497660    -1.199076
H      0.626899    -1.411309     0.298310
H      1.420028     1.264373     0.149918
9
Iteration 1, Energy=-154.0927182361, |grad|=0.000437
C     -0.915287     0.071452     0.055031
C      0.511320    -0.415900    -0.130842
O      1.448676     0.396133     0.523398
H     -1.054024     1.059287    -0.395543
H     -1.624205    -0.612545    -0.418143
H     -1.158330     0.146173     1.116778
H      0.744941    -0.497669    -1.199004
H      0.626824    -1.411276     0.298391
H      1.420084     1.264346     0.149934
9
Iteration 2, Energy=-154.0927183426, |grad|=0.000370
C     -0.915287     0.071396     0.054983
C      0.511247    -0.415884    -0.130897
O      1.448623     0.396093     0.523263
H     -1.054122     1.059240    -0.395295
H     -1.624196    -0.612510    -0.418262
H     -1.158219     0.146137     1.116712
H      0.745099    -0.497701    -1.198933
H      0.626675    -1.411188     0.298532
H      1.420180     1.264417     0.149898
9
Iteration 3, Energy=-154.0927184415, |grad|=0.000558
C     -0.915350     0.071264     0.054931
C      0.511216    -0.415914    -0.130907
O      1.448614     0.396180     0.523107
H     -1.054324     1.059330    -0.394932
H     -1.624216    -0.612476    -0.418501
H     -1.158029     0.145998     1.116658
H      0.745367    -0.497823    -1.198951
H      0.626383    -1.411010     0.298770
H      1.420339     1.264452     0.149823
9
Iteration 4, Energy=-154.0927185452, |grad|=0.000314
C     -0.915384     0.071259     0.054866
C      0.511244    -0.415843    -0.130996
O      1.448640     0.396186     0.523094
H     -1.054502     1.059438    -0.394639
H     -1.624272    -0.612482    -0.418724
H     -1.157893     0.145802     1.116675
H      0.745563    -0.497981    -1.198965
H      0.626150    -1.410921     0.299008
H      1.420454     1.264542     0.149680
9
Iteration 5, Energy=-154.0927186147, |grad|=0.000286
C     -0.915416     0.071303     0.054809
C      0.511303    -0.415801    -0.131008
O      1.448674     0.396246     0.523134
H     -1.054637     1.059588    -0.394481
H     -1.624301    -0.612470    -0.418866
H     -1.157829     0.145567     1.116720
H      0.745672    -0.498147    -1.199013
H      0.626006    -1.410847     0.299156
H      1.420528     1.264561     0.149548
9
Iteration 6, Energy=-154.0927187004, |grad|=0.000381
C     -0.915429     0.071368     0.054794
C      0.511335    -0.415709    -0.131046
O      1.448677     0.396362     0.523180
H     -1.054857     1.059886    -0.394254
H     -1.624264    -0.612353    -0.419055
H     -1.157772     0.145058     1.116708
H      0.745814    -0.498459    -1.198993
H      0.625834    -1.410706     0.299380
H      1.420663     1.264554     0.149286
9
Iteration 7, Energy=-154.0927187453, |grad|=0.000491
C     -0.915416     0.071587     0.054623
C      0.511342    -0.415664    -0.130953
O      1.448609     0.396509     0.523168
H     -1.055093     1.060157    -0.393899
H     -1.624163    -0.612141    -0.419286
H     -1.157779     0.144342     1.116745
H      0.745964    -0.498849    -1.198937
H      0.625674    -1.410478     0.299626
H      1.420862     1.264537     0.148913
9
Iteration 8, Energy=-154.0927187954, |grad|=0.000197
C     -0.915407     0.071533     0.054702
C      0.511308    -0.415652    -0.130974
O      1.448591     0.396509     0.523146
H     -1.055029     1.060136    -0.393945
H     -1.624134    -0.612115    -0.419260
H     -1.157833     0.144389     1.116699
H      0.745910    -0.498798    -1.198884
H      0.625743    -1.410519     0.299592
H      1.420850     1.264517     0.148924
