9
Iteration -1, Energy=-154.0855821065, |grad|=0.023006
C     -0.983669     0.057162     0.024265
C      0.488936    -0.324526    -0.179249
O      1.335264     0.308956     0.754771
H     -1.357455     0.737536    -0.739569
H     -1.614988    -0.830446     0.034757
H     -1.074031     0.541727     0.990975
H      0.795977    -0.125698    -1.207588
H      0.613361    -1.390190    -0.026654
H      1.796605     1.025478     0.348292
9
Iteration 1, Energy=-154.0856645606, |grad|=0.026335
C     -0.976602     0.054612     0.024947
C      0.485653    -0.322588    -0.175119
O      1.336514     0.309912     0.748679
H     -1.357794     0.740081    -0.741109
H     -1.618245    -0.831236     0.031960
H     -1.076705     0.543596     0.996033
H      0.799471    -0.123285    -1.208539
H      0.613781    -1.397023    -0.024695
H      1.793927     1.025933     0.347844
9
Iteration 2, Energy=-154.0857635419, |grad|=0.011855
C     -0.979006     0.055867     0.025744
C      0.487756    -0.324834    -0.176800
O      1.336241     0.308881     0.749402
H     -1.356972     0.739677    -0.740277
H     -1.618134    -0.830654     0.031257
H     -1.077114     0.543192     0.995889
H      0.799547    -0.123165    -1.207366
H      0.613625    -1.396586    -0.024379
H      1.794057     1.027623     0.346532
9
Iteration 3, Energy=-154.0858310658, |grad|=0.009003
C     -0.980333     0.056702     0.027134
C      0.489355    -0.327803    -0.177789
O      1.337461     0.308555     0.748055
H     -1.355462     0.740000    -0.739190
H     -1.619144    -0.829620     0.028852
H     -1.078872     0.543015     0.997500
H      0.801078    -0.122222    -1.205885
H      0.613559    -1.398454    -0.023127
H      1.792358     1.029828     0.344450
9
Iteration 4, Energy=-154.0859272463, |grad|=0.013268
C     -0.981060     0.057269     0.029949
C      0.491078    -0.332358    -0.177759
O      1.340951     0.307299     0.744408
H     -1.351703     0.741607    -0.736695
H     -1.622142    -0.826999     0.022756
H     -1.083254     0.542302     1.001669
H      0.805021    -0.120473    -1.203322
H      0.613686    -1.403858    -0.020017
H      1.787423     1.035210     0.339011
9
Iteration 5, Energy=-154.0860386991, |grad|=0.019901
C     -0.981243     0.057879     0.033423
C      0.492732    -0.338127    -0.176083
O      1.350237     0.307414     0.739351
H     -1.344254     0.745311    -0.731519
H     -1.626998    -0.822250     0.012955
H     -1.089572     0.538512     1.006263
H      0.809349    -0.121022    -1.199336
H      0.613959    -1.409038    -0.015797
H      1.775790     1.041321     0.330742
9
Iteration 6, Energy=-154.0861987125, |grad|=0.017189
C     -0.978636     0.057129     0.037595
C      0.494648    -0.342873    -0.171002
O      1.361764     0.303141     0.732745
H     -1.332805     0.752722    -0.724185
H     -1.634587    -0.815367    -0.001820
H     -1.098729     0.532016     1.013571
H      0.814750    -0.123797    -1.194113
H      0.614711    -1.416583    -0.009255
H      1.758883     1.053611     0.316465
9
Iteration 7, Energy=-154.0864136462, |grad|=0.015257
C     -0.974469     0.055945     0.040129
C      0.497129    -0.346016    -0.163800
O      1.375982     0.300034     0.725165
H     -1.318104     0.764688    -0.715496
H     -1.641531    -0.807794    -0.018089
H     -1.106925     0.520915     1.020377
H      0.816048    -0.133190    -1.188979
H      0.615746    -1.420029    -0.002007
H      1.736124     1.065448     0.302700
9
Iteration 8, Energy=-154.0868148669, |grad|=0.028409
C     -0.964974     0.058441     0.043806
C      0.498008    -0.352909    -0.152110
O      1.401341     0.295890     0.710527
H     -1.285394     0.794594    -0.696761
H     -1.649922    -0.794428    -0.051500
H     -1.118531     0.492434     1.032997
H      0.811491    -0.161521    -1.184123
H      0.618834    -1.424680     0.016403
H      1.689146     1.092179     0.280762
9
Iteration 9, Energy=-154.0873803602, |grad|=0.044790
C     -0.956226     0.057732     0.043425
C      0.503038    -0.358499    -0.138671
O      1.424753     0.296474     0.686712
H     -1.243016     0.838752    -0.672682
H     -1.650998    -0.775436    -0.092781
H     -1.126759     0.452892     1.050204
H      0.796867    -0.207507    -1.183639
H      0.622152    -1.427204     0.043469
H      1.630190     1.122797     0.263961
9
Iteration 10, Energy=-154.0883721471, |grad|=0.047570
C     -0.941548     0.066742     0.043317
C      0.504144    -0.367590    -0.132720
O      1.437757     0.306551     0.658650
H     -1.198386     0.888510    -0.644247
H     -1.645508    -0.759896    -0.137369
H     -1.127374     0.405862     1.065468
H      0.773120    -0.266380    -1.191198
H      0.625330    -1.427434     0.078646
H      1.572466     1.153634     0.259453
9
Iteration 1, Energy=-154.0884627072, |grad|=0.044227
C     -0.941524     0.066748     0.046035
C      0.504500    -0.368676    -0.132706
O      1.437782     0.314145     0.658309
H     -1.198290     0.888635    -0.644191
H     -1.645542    -0.759864    -0.137452
H     -1.128424     0.405761     1.068831
H      0.771203    -0.267455    -1.191308
H      0.625336    -1.429801     0.078712
H      1.572339     1.156542     0.257993
9
Iteration 2, Energy=-154.0884061520, |grad|=0.042987
C     -0.942021     0.066060     0.047152
C      0.505223    -0.369441    -0.132286
O      1.440092     0.314399     0.660320
H     -1.199022     0.884926    -0.644369
H     -1.646977    -0.759550    -0.137704
H     -1.130352     0.407612     1.069989
H      0.774932    -0.262222    -1.189755
H      0.625418    -1.431273     0.076855
H      1.572346     1.158573     0.255023
9
Iteration -1, Energy=-154.0884061520, |grad|=0.042987
C     -0.942021     0.066060     0.047152
C      0.505223    -0.369441    -0.132286
O      1.440092     0.314399     0.660320
H     -1.199022     0.884926    -0.644369
H     -1.646977    -0.759550    -0.137704
H     -1.130352     0.407612     1.069989
H      0.774932    -0.262222    -1.189755
H      0.625418    -1.431273     0.076855
H      1.572346     1.158573     0.255023
9
Iteration 1, Energy=-154.0888679009, |grad|=0.029420
C     -0.950244     0.069828     0.048721
C      0.509789    -0.376945    -0.141616
O      1.434129     0.317342     0.656476
H     -1.198540     0.881955    -0.638842
H     -1.641508    -0.756062    -0.140277
H     -1.127767     0.407180     1.068875
H      0.774879    -0.263052    -1.190223
H      0.624484    -1.431273     0.082742
H      1.574419     1.160108     0.259368
9
Iteration 2, Energy=-154.0891158530, |grad|=0.021846
C     -0.949180     0.069202     0.048749
C      0.507623    -0.377650    -0.144497
O      1.429232     0.316740     0.654175
H     -1.199260     0.882021    -0.635751
H     -1.639110    -0.754587    -0.142995
H     -1.125674     0.407319     1.069881
H      0.775735    -0.264283    -1.194250
H      0.624139    -1.433271     0.088098
H      1.576134     1.163592     0.261813
9
Iteration 3, Energy=-154.0894510484, |grad|=0.028462
C     -0.941524     0.067124     0.049505
C      0.498889    -0.382776    -0.154540
O      1.414387     0.323321     0.644384
H     -1.203152     0.885942    -0.624570
H     -1.633120    -0.751936    -0.155399
H     -1.115499     0.406078     1.073793
H      0.777995    -0.272246    -1.211115
H      0.621403    -1.436802     0.108502
H      1.580261     1.170378     0.274665
9
Iteration 4, Energy=-154.0896149686, |grad|=0.025309
C     -0.942311     0.066752     0.048193
C      0.502096    -0.381797    -0.157790
O      1.410760     0.319105     0.645901
H     -1.204361     0.889962    -0.620443
H     -1.633050    -0.752137    -0.160696
H     -1.109371     0.402793     1.074893
H      0.776359    -0.279637    -1.215102
H      0.619312    -1.434132     0.114888
H      1.580205     1.178172     0.275382
9
Iteration 5, Energy=-154.0897225439, |grad|=0.018062
C     -0.943009     0.066720     0.046954
C      0.503328    -0.380775    -0.157043
O      1.413008     0.320408     0.646715
H     -1.204451     0.891813    -0.620039
H     -1.634168    -0.752669    -0.161623
H     -1.107636     0.400849     1.074897
H      0.775427    -0.282542    -1.214840
H      0.618591    -1.432175     0.114790
H      1.578550     1.177453     0.275413
9
Iteration 6, Energy=-154.0900141128, |grad|=0.011597
C     -0.943653     0.067133     0.041705
C      0.505204    -0.377868    -0.158112
O      1.416614     0.326252     0.646043
H     -1.206395     0.903543    -0.611651
H     -1.636407    -0.753005    -0.172896
H     -1.093316     0.387901     1.075448
H      0.772185    -0.302611    -1.219921
H      0.613652    -1.423635     0.124659
H      1.571755     1.181372     0.279949
9
Iteration 7, Energy=-154.0901728332, |grad|=0.013704
C     -0.942877     0.067790     0.037680
C      0.504261    -0.377252    -0.160128
O      1.417258     0.329456     0.641621
H     -1.207665     0.913745    -0.602968
H     -1.635893    -0.750162    -0.183406
H     -1.082202     0.375160     1.076419
H      0.771393    -0.319586    -1.222860
H      0.609623    -1.418440     0.135378
H      1.565741     1.188372     0.283487
9
Iteration 8, Energy=-154.0904606776, |grad|=0.032276
C     -0.935745     0.078756     0.035705
C      0.506701    -0.378307    -0.160558
O      1.423871     0.336437     0.620682
H     -1.204692     0.942074    -0.580965
H     -1.637292    -0.739113    -0.211951
H     -1.067196     0.334759     1.079982
H      0.775833    -0.360111    -1.222917
H      0.599105    -1.413659     0.161775
H      1.539055     1.208244     0.283471
9
Iteration 9, Energy=-154.0908110852, |grad|=0.016726
C     -0.932208     0.079385     0.027659
C      0.505333    -0.383354    -0.164009
O      1.430796     0.342617     0.601085
H     -1.199874     0.968541    -0.558143
H     -1.632098    -0.720973    -0.238160
H     -1.056550     0.299798     1.089555
H      0.781228    -0.396224    -1.223744
H      0.589657    -1.410215     0.188710
H      1.513357     1.229508     0.282271
9
Iteration 10, Energy=-154.0910784764, |grad|=0.015873
C     -0.929631     0.080476     0.030359
C      0.505290    -0.388688    -0.163725
O      1.436931     0.344719     0.590008
H     -1.191060     0.975677    -0.548307
H     -1.629008    -0.709177    -0.247702
H     -1.064780     0.287346     1.093313
H      0.786697    -0.403807    -1.220602
H      0.587853    -1.413662     0.196887
H      1.497348     1.236197     0.274993
9
Iteration 1, Energy=-154.0911291851, |grad|=0.016152
C     -0.929421     0.080669     0.031111
C      0.505315    -0.389459    -0.163666
O      1.438351     0.344869     0.587498
H     -1.189439     0.977878    -0.545308
H     -1.628533    -0.709173    -0.250609
H     -1.067780     0.283473     1.094176
H      0.787774    -0.406164    -1.220347
H      0.587334    -1.414863     0.198937
H      1.492402     1.237932     0.274401
9
Iteration 2, Energy=-154.0910993952, |grad|=0.018614
C     -0.930562     0.080232     0.030714
C      0.505214    -0.387986    -0.164045
O      1.437935     0.344132     0.588010
H     -1.191234     0.979039    -0.543720
H     -1.629154    -0.716365    -0.252231
H     -1.069519     0.281302     1.094134
H      0.786935    -0.407453    -1.222138
H      0.587038    -1.415461     0.199500
H      1.490049     1.238422     0.278057
9
Iteration -1, Energy=-154.0911291851, |grad|=0.016152
C     -0.929421     0.080669     0.031111
C      0.505315    -0.389459    -0.163666
O      1.438351     0.344869     0.587498
H     -1.189439     0.977878    -0.545308
H     -1.628533    -0.709173    -0.250609
H     -1.067780     0.283473     1.094176
H      0.787774    -0.406164    -1.220347
H      0.587334    -1.414863     0.198937
H      1.492402     1.237932     0.274401
9
Iteration 1, Energy=-154.0911968129, |grad|=0.013228
C     -0.929028     0.080416     0.031965
C      0.506420    -0.389835    -0.162877
O      1.438388     0.346284     0.587092
H     -1.187277     0.977089    -0.543784
H     -1.628963    -0.709019    -0.251895
H     -1.069481     0.284513     1.094239
H      0.787022    -0.405822    -1.221403
H      0.587920    -1.414483     0.199060
H      1.491003     1.236019     0.273796
9
Iteration 2, Energy=-154.0913591428, |grad|=0.016445
C     -0.927318     0.078162     0.035332
C      0.510042    -0.390331    -0.160946
O      1.438489     0.347407     0.587054
H     -1.178516     0.974686    -0.538091
H     -1.630243    -0.707914    -0.256948
H     -1.076444     0.288585     1.094821
H      0.783789    -0.404482    -1.224619
H      0.590731    -1.413654     0.199932
H      1.485474     1.232701     0.269658
9
Iteration 3, Energy=-154.0915355463, |grad|=0.014444
C     -0.924510     0.072747     0.040274
C      0.511411    -0.392838    -0.160297
O      1.440234     0.348023     0.587750
H     -1.163699     0.973437    -0.530307
H     -1.630748    -0.704810    -0.264948
H     -1.088085     0.293930     1.096789
H      0.777961    -0.402067    -1.226334
H      0.596954    -1.414205     0.201591
H      1.476485     1.230944     0.261676
9
Iteration 4, Energy=-154.0916361864, |grad|=0.027622
C     -0.923975     0.072356     0.047182
C      0.514146    -0.397773    -0.151244
O      1.438709     0.346118     0.581417
H     -1.139428     0.974346    -0.520548
H     -1.630667    -0.700009    -0.277295
H     -1.104420     0.295599     1.099134
H      0.768368    -0.398668    -1.224983
H      0.609726    -1.420365     0.203526
H      1.463545     1.233557     0.249005
9
Iteration 5, Energy=-154.0917798941, |grad|=0.011156
C     -0.923358     0.069917     0.048508
C      0.511195    -0.399620    -0.152180
O      1.440508     0.348884     0.580045
H     -1.133513     0.977517    -0.519929
H     -1.629748    -0.697525    -0.280042
H     -1.108350     0.294301     1.100656
H      0.765300    -0.398438    -1.221544
H      0.613655    -1.423582     0.204375
H      1.460315     1.233707     0.246305
9
Iteration 6, Energy=-154.0918566662, |grad|=0.008072
C     -0.923479     0.070082     0.049195
C      0.508440    -0.402726    -0.150387
O      1.441611     0.351493     0.576716
H     -1.126588     0.981993    -0.519795
H     -1.628906    -0.694547    -0.283307
H     -1.112044     0.289966     1.102426
H      0.761422    -0.399009    -1.216781
H      0.618665    -1.427803     0.205032
H      1.456883     1.235711     0.243095
9
Iteration 7, Energy=-154.0919096458, |grad|=0.008089
C     -0.923050     0.070969     0.049949
C      0.507996    -0.404640    -0.147433
O      1.442671     0.353987     0.574007
H     -1.119476     0.986140    -0.518774
H     -1.629345    -0.691083    -0.287506
H     -1.115451     0.283969     1.104020
H      0.757065    -0.401436    -1.213674
H      0.622785    -1.430609     0.206188
H      1.452807     1.237864     0.239415
9
Iteration 8, Energy=-154.0920158876, |grad|=0.012302
C     -0.922721     0.072057     0.049798
C      0.508905    -0.408061    -0.143363
O      1.445159     0.360001     0.569263
H     -1.105764     0.993594    -0.512307
H     -1.630248    -0.679666    -0.298285
H     -1.120333     0.266797     1.107145
H      0.749115    -0.412129    -1.210035
H      0.627957    -1.430951     0.212123
H      1.443933     1.243520     0.231855
9
Iteration 9, Energy=-154.0921180556, |grad|=0.016904
C     -0.915344     0.073870     0.054857
C      0.509393    -0.409456    -0.135961
O      1.447437     0.370624     0.557897
H     -1.080145     1.008631    -0.497318
H     -1.635324    -0.660879    -0.322887
H     -1.129843     0.235114     1.111531
H      0.736428    -0.433545    -1.206485
H      0.636862    -1.432323     0.226962
H      1.426539     1.253126     0.217598
9
Iteration 10, Energy=-154.0922469521, |grad|=0.010549
C     -0.915847     0.072896     0.053613
C      0.511891    -0.410666    -0.136987
O      1.446869     0.373297     0.554284
H     -1.076942     1.011562    -0.488754
H     -1.635376    -0.654491    -0.330376
H     -1.129573     0.226586     1.113106
H      0.736680    -0.441934    -1.208361
H      0.635085    -1.427807     0.234302
H      1.423217     1.255718     0.215366
9
Iteration 1, Energy=-154.0922269705, |grad|=0.019026
C     -0.916577     0.071971     0.052225
C      0.514015    -0.412194    -0.138079
O      1.446328     0.374435     0.551784
H     -1.076951     1.012166    -0.487445
H     -1.635057    -0.649491    -0.330865
H     -1.129571     0.223068     1.114728
H      0.737277    -0.444813    -1.211662
H      0.634947    -1.423996     0.235607
H      1.423063     1.257323     0.215319
9
Iteration 2, Energy=-154.0921608416, |grad|=0.017788
C     -0.914927     0.072656     0.053652
C      0.512782    -0.412000    -0.136338
O      1.446890     0.374189     0.552042
H     -1.074991     1.012402    -0.492368
H     -1.635770    -0.650196    -0.328692
H     -1.131990     0.224300     1.114680
H      0.734977    -0.441830    -1.211508
H      0.638605    -1.426613     0.231927
H      1.422808     1.257111     0.214676
9
Iteration -1, Energy=-154.0922469521, |grad|=0.010549
C     -0.915847     0.072896     0.053613
C      0.511891    -0.410666    -0.136987
O      1.446869     0.373297     0.554284
H     -1.076942     1.011562    -0.488754
H     -1.635376    -0.654491    -0.330376
H     -1.129573     0.226586     1.113106
H      0.736680    -0.441934    -1.208361
H      0.635085    -1.427807     0.234302
H      1.423217     1.255718     0.215366
9
Iteration 1, Energy=-154.0923619915, |grad|=0.010708
C     -0.918634     0.069983     0.053676
C      0.509499    -0.412516    -0.143290
O      1.445776     0.371576     0.550755
H     -1.079452     1.012101    -0.477271
H     -1.632287    -0.655624    -0.335884
H     -1.128298     0.231458     1.112571
H      0.744477    -0.442544    -1.211551
H      0.631952    -1.425597     0.242189
H      1.422971     1.256325     0.214999
9
Iteration 2, Energy=-154.0923938616, |grad|=0.006750
C     -0.917315     0.069883     0.053537
C      0.509680    -0.412646    -0.142280
O      1.444698     0.371723     0.548169
H     -1.081187     1.013554    -0.472952
H     -1.632649    -0.657180    -0.338845
H     -1.127594     0.232245     1.112614
H      0.747533    -0.443678    -1.213796
H      0.630137    -1.424234     0.244731
H      1.422700     1.255495     0.215014
9
Iteration 3, Energy=-154.0924081476, |grad|=0.005489
C     -0.917112     0.069657     0.053252
C      0.510490    -0.412125    -0.142697
O      1.444869     0.371318     0.547889
H     -1.082180     1.014958    -0.471369
H     -1.632684    -0.657471    -0.340027
H     -1.127133     0.231652     1.112668
H      0.748344    -0.444895    -1.213722
H      0.629135    -1.423794     0.245794
H      1.422276     1.255862     0.214406
9
Iteration 4, Energy=-154.0924411766, |grad|=0.006525
C     -0.916842     0.069632     0.051764
C      0.512675    -0.411249    -0.143828
O      1.446435     0.372015     0.547126
H     -1.085596     1.019765    -0.466259
H     -1.632394    -0.657769    -0.343713
H     -1.125398     0.228336     1.112701
H      0.750713    -0.449613    -1.213057
H      0.625663    -1.422074     0.248919
H      1.420748     1.256118     0.212540
9
Iteration 5, Energy=-154.0924733194, |grad|=0.009716
C     -0.916749     0.071499     0.049618
C      0.512973    -0.410476    -0.143262
O      1.448943     0.372573     0.546070
H     -1.089890     1.025271    -0.459301
H     -1.630708    -0.656358    -0.348342
H     -1.122796     0.221223     1.111804
H      0.754164    -0.456861    -1.212693
H      0.621332    -1.419801     0.253010
H      1.418735     1.258091     0.209290
9
Iteration 6, Energy=-154.0925015492, |grad|=0.006097
C     -0.916355     0.073150     0.048500
C      0.513029    -0.409382    -0.143836
O      1.450396     0.375717     0.543374
H     -1.093459     1.030727    -0.453418
H     -1.628390    -0.653547    -0.352794
H     -1.120743     0.212725     1.111025
H      0.756959    -0.464172    -1.210988
H      0.617364    -1.418271     0.257397
H      1.417203     1.258215     0.206933
9
Iteration 7, Energy=-154.0925170672, |grad|=0.004293
C     -0.915967     0.074328     0.048188
C      0.512405    -0.410057    -0.143290
O      1.450007     0.376514     0.542038
H     -1.093424     1.031494    -0.452509
H     -1.627228    -0.651402    -0.353944
H     -1.120844     0.208845     1.111437
H      0.757141    -0.466172    -1.210278
H      0.616771    -1.417589     0.258527
H      1.417144     1.259202     0.206025
9
Iteration 8, Energy=-154.0925342684, |grad|=0.004398
C     -0.915009     0.075258     0.048883
C      0.511048    -0.410440    -0.142899
O      1.449048     0.377698     0.539668
H     -1.092182     1.032669    -0.451044
H     -1.625799    -0.647867    -0.356681
H     -1.121743     0.202838     1.112490
H      0.757232    -0.469027    -1.209852
H      0.616245    -1.416967     0.261294
H      1.417164     1.261001     0.204334
9
Iteration 9, Energy=-154.0925545459, |grad|=0.006579
C     -0.915197     0.075969     0.049499
C      0.511564    -0.411327    -0.142646
O      1.448303     0.379854     0.536531
H     -1.089029     1.034577    -0.447085
H     -1.624858    -0.643577    -0.362348
H     -1.123670     0.195043     1.114703
H      0.756672    -0.473135    -1.209874
H      0.615465    -1.415386     0.266195
H      1.416755     1.263143     0.201218
9
Iteration 10, Energy=-154.0925862739, |grad|=0.006312
C     -0.914157     0.075264     0.051142
C      0.510936    -0.412032    -0.142301
O      1.448457     0.383583     0.532215
H     -1.082844     1.038684    -0.439713
H     -1.624512    -0.637139    -0.372848
H     -1.127529     0.182865     1.117807
H      0.755093    -0.479820    -1.210022
H      0.614947    -1.412885     0.274683
H      1.415613     1.266642     0.195230
9
Iteration 1, Energy=-154.0925937795, |grad|=0.006787
C     -0.913812     0.074826     0.051758
C      0.510829    -0.412276    -0.142180
O      1.448682     0.385025     0.530647
H     -1.080342     1.040370    -0.436597
H     -1.624562    -0.634822    -0.377137
H     -1.129076     0.178333     1.119014
H      0.754441    -0.482408    -1.210187
H      0.614755    -1.411850     0.278074
H      1.415089     1.267963     0.192802
9
Iteration 2, Energy=-154.0925913808, |grad|=0.005541
C     -0.914075     0.074878     0.050960
C      0.510981    -0.411774    -0.142354
O      1.449126     0.383621     0.532595
H     -1.083148     1.039241    -0.439010
H     -1.624860    -0.637678    -0.373209
H     -1.127336     0.183245     1.117486
H      0.755223    -0.480062    -1.210068
H      0.614781    -1.412755     0.274794
H      1.415313     1.266446     0.194999
9
Iteration -1, Energy=-154.0925913808, |grad|=0.005541
C     -0.914075     0.074878     0.050960
C      0.510981    -0.411774    -0.142354
O      1.449126     0.383621     0.532595
H     -1.083148     1.039241    -0.439010
H     -1.624860    -0.637678    -0.373209
H     -1.127336     0.183245     1.117486
H      0.755223    -0.480062    -1.210068
H      0.614781    -1.412755     0.274794
H      1.415313     1.266446     0.194999
9
Iteration 1, Energy=-154.0926030164, |grad|=0.005135
C     -0.915004     0.074199     0.051309
C      0.512147    -0.410612    -0.142211
O      1.449427     0.383431     0.532615
H     -1.082140     1.039523    -0.437714
H     -1.625418    -0.637949    -0.373813
H     -1.127781     0.183848     1.116119
H      0.754263    -0.479969    -1.209299
H      0.615681    -1.413275     0.274912
H      1.414829     1.265965     0.194274
9
Iteration 2, Energy=-154.0926133461, |grad|=0.004077
C     -0.915188     0.073675     0.050932
C      0.512436    -0.410717    -0.141331
O      1.450010     0.383745     0.532668
H     -1.081020     1.039799    -0.436141
H     -1.626118    -0.638318    -0.374596
H     -1.128563     0.184533     1.115254
H      0.753296    -0.479735    -1.208818
H      0.616801    -1.413240     0.274764
H      1.414351     1.265419     0.193462
9
Iteration 3, Energy=-154.0926227210, |grad|=0.007989
C     -0.914800     0.071626     0.050367
C      0.512181    -0.411807    -0.139624
O      1.451307     0.383269     0.533253
H     -1.077160     1.041248    -0.431654
H     -1.627751    -0.638769    -0.377403
H     -1.132079     0.186315     1.113584
H      0.750381    -0.478797    -1.207074
H      0.621017    -1.413625     0.274861
H      1.412908     1.265702     0.189884
9
Iteration 4, Energy=-154.0926327536, |grad|=0.004053
C     -0.915022     0.071604     0.050656
C      0.512232    -0.412585    -0.139111
O      1.450941     0.384841     0.532419
H     -1.075963     1.041446    -0.430785
H     -1.627676    -0.638336    -0.378207
H     -1.133342     0.186297     1.113614
H      0.749848    -0.478553    -1.206951
H      0.622195    -1.414052     0.275078
H      1.412791     1.264500     0.189479
9
Iteration 5, Energy=-154.0926369806, |grad|=0.003288
C     -0.915053     0.071845     0.050990
C      0.512153    -0.412811    -0.139073
O      1.450420     0.384897     0.532123
H     -1.075649     1.041407    -0.430942
H     -1.627313    -0.637831    -0.378401
H     -1.133843     0.185890     1.114098
H      0.749945    -0.478556    -1.207156
H      0.622476    -1.414357     0.275316
H      1.412868     1.264678     0.189238
9
Iteration 6, Energy=-154.0926511316, |grad|=0.002815
C     -0.915009     0.071809     0.053302
C      0.511451    -0.414095    -0.138429
O      1.448754     0.386041     0.531105
H     -1.071273     1.042046    -0.429525
H     -1.626239    -0.634655    -0.381473
H     -1.138873     0.183682     1.115963
H      0.748627    -0.478591    -1.207095
H      0.626249    -1.416248     0.276811
H      1.412316     1.265173     0.185534
9
Iteration 7, Energy=-154.0926523480, |grad|=0.007796
C     -0.915704     0.071814     0.054343
C      0.512931    -0.415374    -0.135413
O      1.447714     0.387047     0.530112
H     -1.065803     1.042436    -0.426272
H     -1.626240    -0.631463    -0.385524
H     -1.144026     0.180765     1.117131
H      0.746096    -0.479199    -1.206312
H      0.629823    -1.416343     0.277588
H      1.411213     1.265479     0.180543
9
Iteration 8, Energy=-154.0926604701, |grad|=0.002766
C     -0.915168     0.071375     0.054612
C      0.512110    -0.414894    -0.136164
O      1.448206     0.387388     0.530409
H     -1.065970     1.042722    -0.426392
H     -1.626376    -0.631582    -0.385554
H     -1.143870     0.180731     1.116945
H      0.746153    -0.479296    -1.206074
H      0.629722    -1.416602     0.277794
H      1.411196     1.265319     0.180617
9
Iteration 9, Energy=-154.0926637379, |grad|=0.001848
C     -0.914936     0.071051     0.054894
C      0.511955    -0.414679    -0.136028
O      1.448588     0.387957     0.530500
H     -1.065072     1.043016    -0.425720
H     -1.626591    -0.630955    -0.386486
H     -1.144517     0.179684     1.116947
H      0.745667    -0.479750    -1.205576
H      0.629950    -1.416433     0.278092
H      1.410961     1.265271     0.179571
9
Iteration 10, Energy=-154.0926686669, |grad|=0.002665
C     -0.914632     0.070628     0.055438
C      0.511938    -0.414389    -0.135278
O      1.449096     0.389276     0.530350
H     -1.062852     1.043666    -0.423960
H     -1.626900    -0.629114    -0.388910
H     -1.146093     0.176578     1.117217
H      0.744630    -0.481006    -1.204524
H      0.630297    -1.415861     0.278996
H      1.410520     1.265384     0.176865
9
Iteration 1, Energy=-154.0926654713, |grad|=0.006867
C     -0.914016     0.069837     0.056153
C      0.511835    -0.413588    -0.134342
O      1.450271     0.391338     0.530371
H     -1.059812     1.044661    -0.421398
H     -1.627577    -0.626525    -0.392441
H     -1.148007     0.171802     1.117404
H      0.743102    -0.483079    -1.202769
H      0.630364    -1.414745     0.280267
H      1.409843     1.265460     0.172948
9
Iteration 2, Energy=-154.0926240585, |grad|=0.015236
C     -0.913048     0.069037     0.054694
C      0.511438    -0.411270    -0.135181
O      1.453311     0.392348     0.531507
H     -1.062224     1.045322    -0.420814
H     -1.629013    -0.627164    -0.392540
H     -1.143877     0.168672     1.115735
H      0.743682    -0.485379    -1.201089
H      0.625614    -1.411833     0.280590
H      1.410121     1.265427     0.173291
9
Iteration -1, Energy=-154.0926686669, |grad|=0.002665
C     -0.914632     0.070628     0.055438
C      0.511938    -0.414389    -0.135278
O      1.449096     0.389276     0.530350
H     -1.062852     1.043666    -0.423960
H     -1.626900    -0.629114    -0.388910
H     -1.146093     0.176578     1.117217
H      0.744630    -0.481006    -1.204524
H      0.630297    -1.415861     0.278996
H      1.410520     1.265384     0.176865
9
Iteration 1, Energy=-154.0926703780, |grad|=0.001807
C     -0.914861     0.070848     0.055170
C      0.512172    -0.414622    -0.134970
O      1.448870     0.389203     0.530050
H     -1.062960     1.043730    -0.423631
H     -1.626809    -0.629085    -0.389028
H     -1.145919     0.176316     1.117190
H      0.744770    -0.481073    -1.204599
H      0.630092    -1.415712     0.279202
H      1.410647     1.265557     0.176810
9
Iteration 2, Energy=-154.0926721223, |grad|=0.002110
C     -0.914995     0.070961     0.054940
C      0.512227    -0.414725    -0.134918
O      1.448685     0.389270     0.529675
H     -1.063177     1.044032    -0.423123
H     -1.626708    -0.629051    -0.389301
H     -1.145628     0.175834     1.117083
H      0.745011    -0.481257    -1.204574
H      0.629747    -1.415637     0.279702
H      1.410843     1.265734     0.176710
9
Iteration 3, Energy=-154.0926779383, |grad|=0.003193
C     -0.915216     0.071217     0.054053
C      0.512019    -0.414972    -0.135070
O      1.448264     0.389605     0.528418
H     -1.064224     1.045615    -0.420781
H     -1.626364    -0.628885    -0.390741
H     -1.144351     0.173476     1.116653
H      0.746122    -0.482350    -1.204430
H      0.628111    -1.415178     0.282082
H      1.411643     1.266633     0.176008
9
Iteration 4, Energy=-154.0926816940, |grad|=0.005610
C     -0.915517     0.071428     0.053270
C      0.512073    -0.414801    -0.135483
O      1.448297     0.391178     0.527218
H     -1.065506     1.047630    -0.417592
H     -1.626049    -0.628312    -0.393054
H     -1.142983     0.169920     1.116314
H      0.747442    -0.484608    -1.204358
H      0.625822    -1.413881     0.284973
H      1.412424     1.266609     0.174906
9
Iteration 5, Energy=-154.0926867618, |grad|=0.002481
C     -0.915394     0.071414     0.052886
C      0.511911    -0.414301    -0.135873
O      1.448415     0.391164     0.526945
H     -1.066303     1.048965    -0.415596
H     -1.625906    -0.627885    -0.394623
H     -1.142256     0.167591     1.116179
H      0.748262    -0.486178    -1.204256
H      0.624469    -1.413061     0.286833
H      1.412806     1.267453     0.173699
9
Iteration 6, Energy=-154.0926893931, |grad|=0.001537
C     -0.915089     0.071352     0.052937
C      0.511800    -0.413840    -0.136077
O      1.448782     0.391413     0.527190
H     -1.066582     1.049531    -0.414599
H     -1.625894    -0.627377    -0.395662
H     -1.142288     0.166183     1.116347
H      0.748558    -0.487406    -1.204222
H      0.623907    -1.412243     0.287500
H      1.412810     1.267551     0.172780
9
Iteration 7, Energy=-154.0926912235, |grad|=0.001759
C     -0.914903     0.071357     0.053123
C      0.511849    -0.413445    -0.136121
O      1.449023     0.391811     0.527305
H     -1.066685     1.049958    -0.413642
H     -1.625756    -0.626602    -0.396736
H     -1.142661     0.164729     1.116603
H      0.748745    -0.488667    -1.204091
H      0.623600    -1.411438     0.287977
H      1.412790     1.267459     0.171775
9
Iteration 8, Energy=-154.0926940445, |grad|=0.001994
C     -0.914681     0.071555     0.053460
C      0.511830    -0.413170    -0.135836
O      1.449089     0.392513     0.527014
H     -1.066587     1.050663    -0.411986
H     -1.625373    -0.625173    -0.398579
H     -1.143687     0.162344     1.117027
H      0.748958    -0.490413    -1.203722
H      0.623555    -1.410627     0.288811
H      1.412899     1.267469     0.170007
9
Iteration 9, Energy=-154.0926985663, |grad|=0.004174
C     -0.915186     0.071433     0.054587
C      0.512414    -0.412954    -0.135230
O      1.449244     0.394522     0.525939
H     -1.065503     1.053134    -0.407185
H     -1.624123    -0.621046    -0.403815
H     -1.147195     0.156029     1.117910
H      0.748910    -0.494449    -1.202171
H      0.624136    -1.409328     0.291480
H      1.413306     1.267821     0.164679
9
Iteration 10, Energy=-154.0927047533, |grad|=0.002521
C     -0.914673     0.072027     0.055212
C      0.512074    -0.413130    -0.133598
O      1.449107     0.396395     0.524375
H     -1.064148     1.055047    -0.402661
H     -1.623530    -0.618037    -0.408652
H     -1.150618     0.150768     1.118666
H      0.748776    -0.497286    -1.201163
H      0.625173    -1.408840     0.293961
H      1.413842     1.268218     0.160053
9
Iteration 1, Energy=-154.0927050673, |grad|=0.003791
C     -0.914415     0.072432     0.055777
C      0.511912    -0.413296    -0.132346
O      1.448984     0.397929     0.523095
H     -1.063018     1.056661    -0.398965
H     -1.622959    -0.615468    -0.412607
H     -1.153464     0.146427     1.119280
H      0.748639    -0.499632    -1.200257
H      0.626044    -1.408451     0.295996
H      1.414280     1.268559     0.156220
9
Iteration 2, Energy=-154.0926811208, |grad|=0.014257
C     -0.913692     0.073734     0.055275
C      0.510700    -0.415008    -0.129406
O      1.447870     0.399479     0.519935
H     -1.061056     1.058075    -0.395166
H     -1.623136    -0.614818    -0.415987
H     -1.156178     0.143895     1.119167
H      0.748164    -0.499042    -1.199783
H      0.627935    -1.410573     0.298618
H      1.415398     1.269418     0.153541
9
Iteration -1, Energy=-154.0927047533, |grad|=0.002521
C     -0.914673     0.072027     0.055212
C      0.512074    -0.413130    -0.133598
O      1.449107     0.396395     0.524375
H     -1.064148     1.055047    -0.402661
H     -1.623530    -0.618037    -0.408652
H     -1.150618     0.150768     1.118666
H      0.748776    -0.497286    -1.201163
H      0.625173    -1.408840     0.293961
H      1.413842     1.268218     0.160053
9
Iteration 1, Energy=-154.0927088065, |grad|=0.002692
C     -0.915547     0.071704     0.054795
C      0.512458    -0.413777    -0.133166
O      1.448783     0.396264     0.523623
H     -1.063234     1.055353    -0.401778
H     -1.623691    -0.618571    -0.408819
H     -1.150675     0.151189     1.117847
H      0.748227    -0.495992    -1.201005
H      0.625530    -1.409619     0.294837
H      1.414152     1.268612     0.159858
9
Iteration 2, Energy=-154.0927111134, |grad|=0.001311
C     -0.915297     0.071231     0.054509
C      0.511840    -0.414196    -0.133087
O      1.448897     0.396598     0.523266
H     -1.062353     1.055713    -0.401064
H     -1.624141    -0.619220    -0.409178
H     -1.150953     0.151564     1.117345
H      0.747690    -0.494904    -1.200859
H      0.625963    -1.410272     0.295621
H      1.414357     1.268648     0.159640
9
Iteration 3, Energy=-154.0927116247, |grad|=0.001272
C     -0.915227     0.071066     0.054498
C      0.511801    -0.414251    -0.133002
O      1.448927     0.396404     0.523426
H     -1.061942     1.055699    -0.400893
H     -1.624262    -0.619292    -0.409342
H     -1.151201     0.151609     1.117332
H      0.747431    -0.494700    -1.200853
H      0.626146    -1.410162     0.295701
H      1.414331     1.268788     0.159326
9
Iteration 4, Energy=-154.0927121656, |grad|=0.001202
C     -0.915235     0.070920     0.054555
C      0.511844    -0.414279    -0.132910
O      1.448926     0.396449     0.523531
H     -1.061492     1.055630    -0.400753
H     -1.624337    -0.619283    -0.409510
H     -1.151497     0.151609     1.117347
H      0.747152    -0.494556    -1.200853
H      0.626341    -1.410000     0.295723
H      1.414301     1.268671     0.159064
9
Iteration 5, Energy=-154.0927133007, |grad|=0.002181
C     -0.915359     0.070280     0.055240
C      0.511940    -0.413750    -0.132431
O      1.448580     0.396732     0.523896
H     -1.058914     1.055180    -0.400095
H     -1.624496    -0.618876    -0.410515
H     -1.153344     0.151308     1.117428
H      0.745668    -0.493902    -1.200760
H      0.627694    -1.409820     0.295974
H      1.414234     1.268009     0.157457
9
Iteration 6, Energy=-154.0927140728, |grad|=0.001434
C     -0.915405     0.070294     0.055390
C      0.511808    -0.414477    -0.131962
O      1.448402     0.397197     0.523917
H     -1.058079     1.055085    -0.399891
H     -1.624362    -0.618511    -0.410926
H     -1.154160     0.150989     1.117678
H      0.745199    -0.493672    -1.200668
H      0.628247    -1.409600     0.295850
H      1.414354     1.267858     0.156806
9
Iteration 7, Energy=-154.0927144524, |grad|=0.000722
C     -0.915405     0.070368     0.055403
C      0.511795    -0.414382    -0.132098
O      1.448374     0.397167     0.523827
H     -1.058452     1.055208    -0.400017
H     -1.624277    -0.618458    -0.410825
H     -1.153966     0.150932     1.117682
H      0.745417    -0.493818    -1.200589
H      0.628120    -1.409837     0.295856
H      1.414398     1.267982     0.156954
9
Iteration 8, Energy=-154.0927148004, |grad|=0.000447
C     -0.915400     0.070424     0.055551
C      0.511751    -0.414387    -0.132025
O      1.448221     0.397299     0.523746
H     -1.058414     1.055345    -0.400001
H     -1.624153    -0.618186    -0.411010
H     -1.154228     0.150639     1.117801
H      0.745399    -0.493903    -1.200402
H      0.628308    -1.410159     0.295874
H      1.414518     1.268090     0.156658
9
Iteration 9, Energy=-154.0927151168, |grad|=0.000566
C     -0.915420     0.070432     0.055776
C      0.511713    -0.414479    -0.131764
O      1.448057     0.397588     0.523717
H     -1.058051     1.055513    -0.399749
H     -1.624054    -0.617759    -0.411485
H     -1.154847     0.150138     1.117957
H      0.745195    -0.493966    -1.200124
H      0.628716    -1.410467     0.295927
H      1.414695     1.268161     0.155938
9
Iteration 10, Energy=-154.0927156147, |grad|=0.000713
C     -0.915455     0.070420     0.055905
C      0.511730    -0.414492    -0.131312
O      1.447961     0.398033     0.523643
H     -1.057762     1.055841    -0.398960
H     -1.624036    -0.617166    -0.412343
H     -1.155624     0.149276     1.118056
H      0.745090    -0.494241    -1.199718
H      0.629104    -1.410686     0.296154
H      1.414996     1.268177     0.154768
9
Iteration 1, Energy=-154.0927132371, |grad|=0.002039
C     -0.915565     0.070150     0.056994
C      0.511444    -0.414921    -0.129540
O      1.447085     0.399890     0.523456
H     -1.054938     1.056715    -0.396705
H     -1.623699    -0.614801    -0.415623
H     -1.159613     0.146345     1.118770
H      0.743578    -0.494299    -1.198171
H      0.631653    -1.411888     0.296795
H      1.416059     1.268185     0.150120
9
Iteration 2, Energy=-154.0927017577, |grad|=0.004229
C     -0.915875     0.070977     0.058015
C      0.511635    -0.415321    -0.127834
O      1.446188     0.401866     0.522998
H     -1.055138     1.058154    -0.394871
H     -1.622665    -0.611360    -0.418963
H     -1.162543     0.142171     1.119982
H      0.743928    -0.496416    -1.196252
H      0.633044    -1.413358     0.296812
H      1.417429     1.268748     0.145813
9
Iteration -1, Energy=-154.0927156147, |grad|=0.000713
C     -0.915455     0.070420     0.055905
C      0.511730    -0.414492    -0.131312
O      1.447961     0.398033     0.523643
H     -1.057762     1.055841    -0.398960
H     -1.624036    -0.617166    -0.412343
H     -1.155624     0.149276     1.118056
H      0.745090    -0.494241    -1.199718
H      0.629104    -1.410686     0.296154
H      1.414996     1.268177     0.154768
9
Iteration 1, Energy=-154.0927156972, |grad|=0.000529
C     -0.915470     0.070417     0.055904
C      0.511738    -0.414548    -0.131323
O      1.447989     0.398049     0.523660
H     -1.057770     1.055848    -0.398907
H     -1.624047    -0.617173    -0.412369
H     -1.155618     0.149259     1.118035
H      0.745102    -0.494253    -1.199721
H      0.629078    -1.410599     0.296168
H      1.415000     1.268161     0.154746
9
Iteration 2, Energy=-154.0927158918, |grad|=0.000538
C     -0.915508     0.070361     0.055868
C      0.511766    -0.414602    -0.131376
O      1.448085     0.398054     0.523716
H     -1.057806     1.055897    -0.398646
H     -1.624100    -0.617196    -0.412497
H     -1.155595     0.149163     1.117957
H      0.745172    -0.494328    -1.199739
H      0.628963    -1.410292     0.296290
H      1.415026     1.268104     0.154619
9
Iteration 3, Energy=-154.0927160763, |grad|=0.000649
C     -0.915533     0.070295     0.055792
C      0.511797    -0.414532    -0.131425
O      1.448152     0.398096     0.523708
H     -1.057869     1.055982    -0.398268
H     -1.624166    -0.617215    -0.412692
H     -1.155569     0.148989     1.117876
H      0.745291    -0.494449    -1.199774
H      0.628811    -1.409988     0.296521
H      1.415092     1.267982     0.154456
9
Iteration 4, Energy=-154.0927162688, |grad|=0.001191
C     -0.915613     0.070201     0.055644
C      0.511852    -0.414370    -0.131525
O      1.448195     0.397984     0.523678
H     -1.058072     1.056278    -0.397402
H     -1.624235    -0.617182    -0.413187
H     -1.155528     0.148434     1.117722
H      0.745604    -0.494753    -1.199802
H      0.628474    -1.409444     0.297136
H      1.415326     1.268014     0.153929
9
Iteration 5, Energy=-154.0927165431, |grad|=0.000601
C     -0.915621     0.070179     0.055562
C      0.511818    -0.414262    -0.131551
O      1.448170     0.398166     0.523538
H     -1.058187     1.056457    -0.397023
H     -1.624227    -0.617123    -0.413431
H     -1.155531     0.148105     1.117699
H      0.745761    -0.494912    -1.199798
H      0.628332    -1.409337     0.297451
H      1.415489     1.267888     0.153747
9
Iteration 6, Energy=-154.0927167927, |grad|=0.000623
C     -0.915641     0.070220     0.055495
C      0.511762    -0.414182    -0.131545
O      1.448075     0.398343     0.523352
H     -1.058353     1.056722    -0.396611
H     -1.624156    -0.616987    -0.413750
H     -1.155560     0.147602     1.117712
H      0.745952    -0.495124    -1.199752
H      0.628184    -1.409326     0.297836
H      1.415742     1.267893     0.153456
9
Iteration 7, Energy=-154.0927170992, |grad|=0.000761
C     -0.915696     0.070315     0.055433
C      0.511686    -0.414145    -0.131511
O      1.447944     0.398615     0.523117
H     -1.058627     1.057180    -0.395931
H     -1.624012    -0.616704    -0.414325
H     -1.155644     0.146682     1.117740
H      0.746232    -0.495523    -1.199625
H      0.627941    -1.409266     0.298426
H      1.416180     1.268007     0.152870
9
Iteration 8, Energy=-154.0927175370, |grad|=0.000696
C     -0.915761     0.070430     0.055429
C      0.511653    -0.414078    -0.131333
O      1.447875     0.399098     0.522967
H     -1.058900     1.057767    -0.394948
H     -1.623816    -0.616150    -0.415291
H     -1.155930     0.145215     1.117823
H      0.746444    -0.496235    -1.199331
H      0.627646    -1.409035     0.299077
H      1.416792     1.268150     0.151800
9
Iteration 9, Energy=-154.0927179511, |grad|=0.001500
C     -0.915922     0.070486     0.055921
C      0.511666    -0.413873    -0.131019
O      1.447625     0.399945     0.522695
H     -1.058757     1.058573    -0.393106
H     -1.623448    -0.615046    -0.417265
H     -1.156996     0.142752     1.117810
H      0.746388    -0.497249    -1.198565
H      0.627611    -1.408634     0.300154
H      1.417837     1.268208     0.149567
9
Iteration 10, Energy=-154.0927184940, |grad|=0.000535
C     -0.915961     0.070454     0.055878
C      0.511576    -0.413844    -0.130466
O      1.447577     0.400509     0.522639
H     -1.058560     1.059049    -0.391837
H     -1.623193    -0.614234    -0.418590
H     -1.157859     0.141112     1.118067
H      0.746257    -0.497928    -1.198185
H      0.627659    -1.408249     0.300741
H      1.418507     1.268294     0.147946
9
Iteration 1, Energy=-154.0927174246, |grad|=0.001217
C     -0.916179     0.070529     0.056115
C      0.511428    -0.413576    -0.129505
O      1.447257     0.402138     0.522180
H     -1.058490     1.060689    -0.388158
H     -1.622490    -0.612115    -0.422317
H     -1.159802     0.136287     1.118395
H      0.746327    -0.499985    -1.197014
H      0.627408    -1.407315     0.302848
H      1.420545     1.268510     0.143650
9
Iteration 2, Energy=-154.0927140341, |grad|=0.002449
C     -0.916372     0.070587     0.056393
C      0.511268    -0.413358    -0.128386
O      1.446944     0.403796     0.521798
H     -1.058222     1.062222    -0.384603
H     -1.621749    -0.609894    -0.426058
H     -1.161952     0.131502     1.118821
H      0.746193    -0.501989    -1.195787
H      0.627346    -1.406449     0.304760
H      1.422547     1.268746     0.139256
9
Iteration -1, Energy=-154.0927184940, |grad|=0.000535
C     -0.915961     0.070454     0.055878
C      0.511576    -0.413844    -0.130466
O      1.447577     0.400509     0.522639
H     -1.058560     1.059049    -0.391837
H     -1.623193    -0.614234    -0.418590
H     -1.157859     0.141112     1.118067
H      0.746257    -0.497928    -1.198185
H      0.627659    -1.408249     0.300741
H      1.418507     1.268294     0.147946
9
Iteration 1, Energy=-154.0927187286, |grad|=0.000714
C     -0.915986     0.070249     0.055776
C      0.511538    -0.413917    -0.130466
O      1.447766     0.400552     0.522782
H     -1.058211     1.059086    -0.391649
H     -1.623349    -0.614408    -0.418694
H     -1.158151     0.141347     1.118118
H      0.746090    -0.497659    -1.198360
H      0.627882    -1.408227     0.300892
H      1.418424     1.268138     0.147795
9
Iteration 2, Energy=-154.0927188925, |grad|=0.000450
C     -0.916087     0.070176     0.055890
C      0.511683    -0.413953    -0.130416
O      1.447749     0.400443     0.522797
H     -1.057885     1.059065    -0.391496
H     -1.623462    -0.614535    -0.418793
H     -1.158396     0.141520     1.118009
H      0.745931    -0.497411    -1.198434
H      0.628097    -1.408218     0.300996
H      1.418375     1.268074     0.147640
9
Iteration 3, Energy=-154.0927189631, |grad|=0.000373
C     -0.916097     0.070132     0.055928
C      0.511687    -0.413982    -0.130363
O      1.447686     0.400476     0.522719
H     -1.057713     1.059027    -0.391436
H     -1.623465    -0.614531    -0.418818
H     -1.158547     0.141580     1.117962
H      0.745843    -0.497282    -1.198403
H      0.628236    -1.408239     0.301012
H      1.418375     1.267979     0.147593
9
Iteration 4, Energy=-154.0927190408, |grad|=0.000299
C     -0.916076     0.070064     0.055963
C      0.511627    -0.414022    -0.130293
O      1.447599     0.400456     0.522649
H     -1.057473     1.058967    -0.391379
H     -1.623437    -0.614477    -0.418843
H     -1.158780     0.141636     1.117927
H      0.745711    -0.497116    -1.198317
H      0.628451    -1.408292     0.301007
H      1.418382     1.267945     0.147478
9
Iteration 5, Energy=-154.0927191075, |grad|=0.000440
C     -0.916082     0.070051     0.056133
C      0.511529    -0.414175    -0.130185
O      1.447553     0.400552     0.522665
H     -1.057119     1.058891    -0.391393
H     -1.623386    -0.614346    -0.418927
H     -1.159149     0.141619     1.117923
H      0.745481    -0.496950    -1.198174
H      0.628776    -1.408417     0.300906
H      1.418401     1.267937     0.147246
9
Iteration 6, Energy=-154.0927191572, |grad|=0.000201
C     -0.916080     0.070012     0.056168
C      0.511527    -0.414120    -0.130039
O      1.447502     0.400591     0.522688
H     -1.056925     1.058868    -0.391442
H     -1.623349    -0.614220    -0.418988
H     -1.159382     0.141557     1.118025
H      0.745334    -0.496917    -1.198114
H      0.628958    -1.408566     0.300824
H      1.418418     1.267956     0.147072
