9
Iteration -1, Energy=-154.0855821065, |grad|=0.023006
C     -0.983669     0.057162     0.024265
C      0.488936    -0.324526    -0.179249
O      1.335264     0.308956     0.754771
H     -1.357455     0.737536    -0.739569
H     -1.614988    -0.830446     0.034757
H     -1.074031     0.541727     0.990975
H      0.795977    -0.125698    -1.207588
H      0.613361    -1.390190    -0.026654
H      1.796605     1.025478     0.348292
9
Iteration 1, Energy=-154.0856645606, |grad|=0.026335
C     -0.976602     0.054612     0.024947
C      0.485653    -0.322588    -0.175119
O      1.336514     0.309912     0.748679
H     -1.357794     0.740081    -0.741109
H     -1.618245    -0.831236     0.031960
H     -1.076705     0.543596     0.996033
H      0.799471    -0.123285    -1.208539
H      0.613781    -1.397023    -0.024695
H      1.793927     1.025933     0.347844
9
Iteration 2, Energy=-154.0857635419, |grad|=0.011855
C     -0.979006     0.055867     0.025744
C      0.487756    -0.324834    -0.176800
O      1.336241     0.308881     0.749402
H     -1.356972     0.739677    -0.740277
H     -1.618134    -0.830654     0.031257
H     -1.077114     0.543192     0.995889
H      0.799547    -0.123165    -1.207366
H      0.613625    -1.396586    -0.024379
H      1.794057     1.027623     0.346532
9
Iteration 3, Energy=-154.0858310658, |grad|=0.009003
C     -0.980333     0.056702     0.027134
C      0.489355    -0.327803    -0.177789
O      1.337461     0.308555     0.748055
H     -1.355462     0.740000    -0.739190
H     -1.619144    -0.829620     0.028852
H     -1.078872     0.543015     0.997500
H      0.801078    -0.122222    -1.205885
H      0.613559    -1.398454    -0.023127
H      1.792358     1.029828     0.344450
9
Iteration 4, Energy=-154.0859272463, |grad|=0.013268
C     -0.981060     0.057269     0.029949
C      0.491078    -0.332358    -0.177759
O      1.340951     0.307299     0.744408
H     -1.351703     0.741607    -0.736695
H     -1.622142    -0.826999     0.022756
H     -1.083254     0.542302     1.001669
H      0.805021    -0.120473    -1.203322
H      0.613686    -1.403858    -0.020017
H      1.787423     1.035210     0.339011
9
Iteration 5, Energy=-154.0860386991, |grad|=0.019901
C     -0.981243     0.057879     0.033423
C      0.492732    -0.338127    -0.176083
O      1.350237     0.307414     0.739351
H     -1.344254     0.745311    -0.731519
H     -1.626998    -0.822250     0.012955
H     -1.089572     0.538512     1.006263
H      0.809349    -0.121022    -1.199336
H      0.613959    -1.409038    -0.015797
H      1.775790     1.041321     0.330742
9
Iteration 6, Energy=-154.0861987125, |grad|=0.017189
C     -0.978636     0.057129     0.037595
C      0.494648    -0.342873    -0.171002
O      1.361764     0.303141     0.732745
H     -1.332805     0.752722    -0.724185
H     -1.634587    -0.815367    -0.001820
H     -1.098729     0.532016     1.013571
H      0.814750    -0.123797    -1.194113
H      0.614711    -1.416583    -0.009255
H      1.758883     1.053611     0.316465
9
Iteration 7, Energy=-154.0864136462, |grad|=0.015257
C     -0.974469     0.055945     0.040129
C      0.497129    -0.346016    -0.163800
O      1.375982     0.300034     0.725165
H     -1.318104     0.764688    -0.715496
H     -1.641531    -0.807794    -0.018089
H     -1.106925     0.520915     1.020377
H      0.816048    -0.133190    -1.188979
H      0.615746    -1.420029    -0.002007
H      1.736124     1.065448     0.302700
9
Iteration 8, Energy=-154.0868148669, |grad|=0.028409
C     -0.964974     0.058441     0.043806
C      0.498008    -0.352909    -0.152110
O      1.401341     0.295890     0.710527
H     -1.285394     0.794594    -0.696761
H     -1.649922    -0.794428    -0.051500
H     -1.118531     0.492434     1.032997
H      0.811491    -0.161521    -1.184123
H      0.618834    -1.424680     0.016403
H      1.689146     1.092179     0.280762
9
Iteration 9, Energy=-154.0873803602, |grad|=0.044790
C     -0.956226     0.057732     0.043425
C      0.503038    -0.358499    -0.138671
O      1.424753     0.296474     0.686712
H     -1.243016     0.838752    -0.672682
H     -1.650998    -0.775436    -0.092781
H     -1.126759     0.452892     1.050204
H      0.796867    -0.207507    -1.183639
H      0.622152    -1.427204     0.043469
H      1.630190     1.122797     0.263961
9
Iteration 10, Energy=-154.0883721471, |grad|=0.047570
C     -0.941548     0.066742     0.043317
C      0.504144    -0.367590    -0.132720
O      1.437757     0.306551     0.658650
H     -1.198386     0.888510    -0.644247
H     -1.645508    -0.759896    -0.137369
H     -1.127374     0.405862     1.065468
H      0.773120    -0.266380    -1.191198
H      0.625330    -1.427434     0.078646
H      1.572466     1.153634     0.259453
9
Iteration 1, Energy=-154.0883819316, |grad|=0.047601
C     -0.941548     0.066742     0.043306
C      0.504135    -0.367583    -0.132722
O      1.437638     0.306560     0.658489
H     -1.197986     0.888507    -0.643958
H     -1.645507    -0.759825    -0.137827
H     -1.127368     0.405552     1.065586
H      0.773116    -0.266384    -1.191199
H      0.625329    -1.427415     0.078919
H      1.572015     1.153968     0.259456
9
Iteration 2, Energy=-154.0883769728, |grad|=0.047420
C     -0.941642     0.066699     0.043288
C      0.504150    -0.367502    -0.132781
O      1.437702     0.306530     0.658645
H     -1.198346     0.888237    -0.644205
H     -1.645489    -0.759896    -0.137460
H     -1.127322     0.405899     1.065502
H      0.773211    -0.266100    -1.191190
H      0.625305    -1.427428     0.078647
H      1.572424     1.153696     0.259557
9
Iteration -1, Energy=-154.0883769728, |grad|=0.047420
C     -0.941642     0.066699     0.043288
C      0.504150    -0.367502    -0.132781
O      1.437702     0.306530     0.658645
H     -1.198346     0.888237    -0.644205
H     -1.645489    -0.759896    -0.137460
H     -1.127322     0.405899     1.065502
H      0.773211    -0.266100    -1.191190
H      0.625305    -1.427428     0.078647
H      1.572424     1.153696     0.259557
9
Iteration 1, Energy=-154.0888777524, |grad|=0.029119
C     -0.948587     0.070055     0.045180
C      0.507098    -0.376368    -0.142630
O      1.434912     0.312032     0.656895
H     -1.198157     0.885662    -0.640056
H     -1.641199    -0.757017    -0.140104
H     -1.125566     0.405985     1.065578
H      0.773409    -0.266448    -1.191618
H      0.623887    -1.428508     0.083303
H      1.574195     1.154743     0.263456
9
Iteration 2, Energy=-154.0891269435, |grad|=0.022625
C     -0.948928     0.069989     0.045739
C      0.506235    -0.378372    -0.146270
O      1.430486     0.311810     0.655398
H     -1.198838     0.885105    -0.637122
H     -1.638793    -0.755203    -0.143116
H     -1.123797     0.406424     1.067139
H      0.774471    -0.267276    -1.195468
H      0.622961    -1.431707     0.088277
H      1.576197     1.159366     0.265424
9
Iteration 3, Energy=-154.0894752177, |grad|=0.021158
C     -0.943948     0.068404     0.047789
C      0.500801    -0.384239    -0.154694
O      1.416945     0.318778     0.646468
H     -1.202386     0.886345    -0.627604
H     -1.633445    -0.751229    -0.155269
H     -1.116103     0.406832     1.072897
H      0.778141    -0.272555    -1.211267
H      0.618895    -1.440570     0.105566
H      1.581093     1.168369     0.276117
9
Iteration 4, Energy=-154.0896336381, |grad|=0.022683
C     -0.942824     0.068013     0.047560
C      0.504210    -0.383671    -0.157892
O      1.413631     0.316085     0.646973
H     -1.203721     0.890506    -0.623355
H     -1.634640    -0.751709    -0.161517
H     -1.109671     0.403076     1.073652
H      0.776508    -0.280912    -1.213924
H      0.616106    -1.436416     0.111236
H      1.580395     1.175164     0.277271
9
Iteration 5, Energy=-154.0897588764, |grad|=0.019601
C     -0.942342     0.067279     0.045723
C      0.505006    -0.382150    -0.157986
O      1.414442     0.317104     0.647022
H     -1.204199     0.893637    -0.620893
H     -1.635746    -0.751893    -0.164768
H     -1.105554     0.399811     1.073982
H      0.775362    -0.286850    -1.214976
H      0.614622    -1.432955     0.113595
H      1.578402     1.176154     0.278305
9
Iteration 6, Energy=-154.0901528607, |grad|=0.017754
C     -0.941475     0.069058     0.038973
C      0.501989    -0.377478    -0.159594
O      1.417529     0.324451     0.641899
H     -1.206248     0.913063    -0.602258
H     -1.637623    -0.748575    -0.187361
H     -1.079507     0.374045     1.073012
H      0.773029    -0.323728    -1.224125
H      0.606397    -1.418837     0.134024
H      1.565903     1.188137     0.285434
9
Iteration 7, Energy=-154.0902164702, |grad|=0.034300
C     -0.939603     0.065259     0.026761
C      0.504032    -0.377223    -0.165670
O      1.416880     0.330336     0.629931
H     -1.206709     0.931715    -0.588188
H     -1.634745    -0.739360    -0.203947
H     -1.066394     0.354061     1.082739
H      0.772879    -0.349527    -1.224169
H      0.599924    -1.414277     0.153000
H      1.553728     1.199152     0.289546
9
Iteration 8, Energy=-154.0904083481, |grad|=0.015467
C     -0.939131     0.069386     0.031119
C      0.502721    -0.379794    -0.164213
O      1.417723     0.330334     0.629294
H     -1.205722     0.930613    -0.588627
H     -1.635080    -0.739842    -0.203542
H     -1.068666     0.353186     1.079971
H      0.774403    -0.347381    -1.224382
H      0.600644    -1.415620     0.152142
H      1.553102     1.199254     0.288241
9
Iteration 9, Energy=-154.0905681825, |grad|=0.012431
C     -0.937872     0.073685     0.033129
C      0.501698    -0.383041    -0.163571
O      1.420097     0.331644     0.623247
H     -1.203225     0.936921    -0.584056
H     -1.634133    -0.735729    -0.208953
H     -1.069116     0.343253     1.079909
H      0.777238    -0.353642    -1.223607
H      0.599612    -1.417031     0.157933
H      1.545696     1.204075     0.285972
9
Iteration 10, Energy=-154.0908255693, |grad|=0.020395
C     -0.934258     0.080630     0.033531
C      0.501420    -0.388934    -0.162710
O      1.426843     0.335252     0.607806
H     -1.196046     0.955264    -0.570239
H     -1.631958    -0.723872    -0.224938
H     -1.069529     0.317377     1.083820
H      0.783126    -0.373201    -1.221681
H      0.595933    -1.419151     0.174526
H      1.524463     1.216770     0.279889
9
Iteration 1, Energy=-154.0908704502, |grad|=0.020704
C     -0.933872     0.080648     0.033704
C      0.501361    -0.389623    -0.162582
O      1.427606     0.335401     0.605424
H     -1.194893     0.958349    -0.567950
H     -1.631958    -0.722034    -0.227901
H     -1.070685     0.313833     1.084314
H      0.783134    -0.375599    -1.221166
H      0.596174    -1.419328     0.177160
H      1.520416     1.219185     0.279206
9
Iteration 2, Energy=-154.0908928450, |grad|=0.020227
C     -0.933582     0.079447     0.033608
C      0.501258    -0.390228    -0.162545
O      1.427994     0.335534     0.603936
H     -1.194699     0.959768    -0.566826
H     -1.632251    -0.721009    -0.229177
H     -1.071073     0.311497     1.084316
H      0.782182    -0.376698    -1.220966
H      0.596254    -1.419286     0.178428
H      1.518543     1.220180     0.279071
9
Iteration -1, Energy=-154.0908928450, |grad|=0.020227
C     -0.933582     0.079447     0.033608
C      0.501258    -0.390228    -0.162545
O      1.427994     0.335534     0.603936
H     -1.194699     0.959768    -0.566826
H     -1.632251    -0.721009    -0.229177
H     -1.071073     0.311497     1.084316
H      0.782182    -0.376698    -1.220966
H      0.596254    -1.419286     0.178428
H      1.518543     1.220180     0.279071
9
Iteration 1, Energy=-154.0909882591, |grad|=0.017694
C     -0.934013     0.075807     0.029599
C      0.504032    -0.387283    -0.162934
O      1.429588     0.337157     0.604283
H     -1.191310     0.958714    -0.564108
H     -1.632172    -0.719105    -0.230773
H     -1.074220     0.313575     1.089100
H      0.781150    -0.377276    -1.221821
H      0.596037    -1.420335     0.179037
H      1.515533     1.217953     0.277461
9
Iteration 2, Energy=-154.0910528396, |grad|=0.012138
C     -0.933215     0.075772     0.031602
C      0.505102    -0.387860    -0.162576
O      1.430118     0.336732     0.604682
H     -1.189380     0.958537    -0.562961
H     -1.632905    -0.719107    -0.232408
H     -1.075905     0.313983     1.089075
H      0.780855    -0.377454    -1.222514
H      0.596049    -1.419819     0.179024
H      1.513908     1.218422     0.275921
9
Iteration 3, Energy=-154.0912024323, |grad|=0.011603
C     -0.930029     0.073840     0.039021
C      0.509030    -0.390125    -0.160748
O      1.433581     0.337839     0.604948
H     -1.178687     0.957855    -0.556558
H     -1.635188    -0.717417    -0.240509
H     -1.084964     0.316019     1.090580
H      0.779153    -0.378358    -1.225203
H      0.596727    -1.418654     0.179353
H      1.505004     1.218207     0.268962
9
Iteration 4, Energy=-154.0912871644, |grad|=0.016481
C     -0.928769     0.072180     0.042122
C      0.509700    -0.391211    -0.158844
O      1.435283     0.337020     0.602785
H     -1.169222     0.958329    -0.551212
H     -1.634768    -0.714156    -0.246463
H     -1.092120     0.316032     1.092522
H      0.777373    -0.379017    -1.224618
H      0.599117    -1.420384     0.180520
H      1.498032     1.220413     0.263034
9
Iteration 5, Energy=-154.0914429923, |grad|=0.014346
C     -0.926403     0.070287     0.048296
C      0.509557    -0.395867    -0.154647
O      1.438731     0.340077     0.595262
H     -1.149749     0.961050    -0.540863
H     -1.633292    -0.707259    -0.258655
H     -1.106217     0.314021     1.096005
H      0.773133    -0.380484    -1.221546
H      0.605061    -1.424720     0.183200
H      1.483806     1.222101     0.252791
9
Iteration 6, Energy=-154.0916256039, |grad|=0.022356
C     -0.923158     0.068329     0.054040
C      0.513053    -0.403166    -0.146121
O      1.442477     0.345018     0.581960
H     -1.120032     0.978213    -0.529146
H     -1.632287    -0.695772    -0.279079
H     -1.124385     0.300007     1.103563
H      0.760030    -0.388162    -1.213586
H      0.617811    -1.434480     0.191697
H      1.461117     1.229220     0.236518
9
Iteration 7, Energy=-154.0917691197, |grad|=0.017011
C     -0.922092     0.074257     0.052725
C      0.508758    -0.410462    -0.139861
O      1.446779     0.352234     0.573454
H     -1.099789     0.987477    -0.517474
H     -1.630862    -0.686008    -0.293513
H     -1.133005     0.284237     1.106835
H      0.750263    -0.397055    -1.209442
H      0.628031    -1.439895     0.200170
H      1.446545     1.234420     0.226951
9
Iteration 8, Energy=-154.0918623582, |grad|=0.011221
C     -0.922921     0.073834     0.052338
C      0.508126    -0.409604    -0.140336
O      1.446024     0.354910     0.571856
H     -1.100025     0.991797    -0.517034
H     -1.630383    -0.682947    -0.295103
H     -1.129755     0.277575     1.105140
H      0.748044    -0.401691    -1.208953
H      0.629021    -1.439314     0.203837
H      1.446496     1.234646     0.228100
9
Iteration 9, Energy=-154.0919576329, |grad|=0.013679
C     -0.922095     0.073626     0.051115
C      0.508391    -0.409547    -0.139887
O      1.445323     0.358070     0.568873
H     -1.096807     0.998303    -0.512781
H     -1.630791    -0.677220    -0.301301
H     -1.127302     0.266528     1.104914
H      0.743799    -0.410477    -1.209043
H      0.630782    -1.437106     0.210763
H      1.443327     1.237029     0.227192
9
Iteration 10, Energy=-154.0921648592, |grad|=0.017466
C     -0.917970     0.073281     0.050152
C      0.509372    -0.411166    -0.140140
O      1.444708     0.366210     0.558585
H     -1.082434     1.013836    -0.494751
H     -1.632625    -0.660502    -0.324329
H     -1.125561     0.238049     1.107226
H      0.733963    -0.435235    -1.209391
H      0.634965    -1.430926     0.231512
H      1.430208     1.245659     0.220981
9
Iteration 1, Energy=-154.0921779607, |grad|=0.019562
C     -0.917790     0.073230     0.049849
C      0.509225    -0.411448    -0.140195
O      1.444672     0.367083     0.556894
H     -1.081260     1.016752    -0.492723
H     -1.632717    -0.659073    -0.327587
H     -1.125255     0.233965     1.107285
H      0.733787    -0.438818    -1.209413
H      0.634967    -1.430922     0.234545
H      1.428797     1.246691     0.220801
9
Iteration 2, Energy=-154.0921902296, |grad|=0.021277
C     -0.917525     0.073212     0.049686
C      0.509245    -0.411498    -0.140316
O      1.444600     0.367690     0.556009
H     -1.080569     1.018324    -0.491284
H     -1.632741    -0.657612    -0.329603
H     -1.125026     0.231014     1.107374
H      0.734853    -0.441247    -1.209428
H      0.633937    -1.431609     0.236631
H      1.427949     1.247476     0.220927
9
Iteration -1, Energy=-154.0921648592, |grad|=0.017466
C     -0.917970     0.073281     0.050152
C      0.509372    -0.411166    -0.140140
O      1.444708     0.366210     0.558585
H     -1.082434     1.013836    -0.494751
H     -1.632625    -0.660502    -0.324329
H     -1.125561     0.238049     1.107226
H      0.733963    -0.435235    -1.209391
H      0.634965    -1.430926     0.231512
H      1.430208     1.245659     0.220981
9
Iteration 1, Energy=-154.0922106981, |grad|=0.017863
C     -0.917372     0.075172     0.049470
C      0.509353    -0.412883    -0.139031
O      1.444493     0.362703     0.558577
H     -1.082752     1.011523    -0.491477
H     -1.633361    -0.661046    -0.326373
H     -1.125754     0.238812     1.108504
H      0.736723    -0.435872    -1.211553
H      0.633149    -1.428845     0.232176
H      1.430146     1.249642     0.219551
9
Iteration 2, Energy=-154.0922510614, |grad|=0.009586
C     -0.917527     0.074328     0.049990
C      0.509222    -0.412633    -0.139950
O      1.444726     0.364302     0.557852
H     -1.082942     1.011607    -0.490795
H     -1.633259    -0.660787    -0.326938
H     -1.125760     0.239028     1.108612
H      0.737572    -0.436234    -1.211649
H      0.632453    -1.428870     0.232708
H      1.430141     1.248464     0.220015
9
Iteration 3, Energy=-154.0922982142, |grad|=0.007446
C     -0.917787     0.072713     0.051042
C      0.509175    -0.412243    -0.141834
O      1.445099     0.365861     0.556168
H     -1.083641     1.011165    -0.487707
H     -1.633240    -0.660248    -0.329229
H     -1.125796     0.239736     1.109363
H      0.740890    -0.437567    -1.212641
H      0.629896    -1.428176     0.234468
H      1.430029     1.247964     0.220214
9
Iteration 4, Energy=-154.0923372201, |grad|=0.007712
C     -0.918075     0.070884     0.052102
C      0.509505    -0.411786    -0.143897
O      1.445484     0.366409     0.553920
H     -1.084890     1.010841    -0.482856
H     -1.633301    -0.659532    -0.332738
H     -1.125705     0.240230     1.110509
H      0.745862    -0.439848    -1.214072
H      0.626024    -1.426853     0.237113
H      1.429722     1.248860     0.219765
9
Iteration 5, Energy=-154.0923774195, |grad|=0.008923
C     -0.917781     0.071190     0.051342
C      0.510190    -0.412347    -0.144620
O      1.446533     0.367559     0.550589
H     -1.087590     1.013173    -0.476070
H     -1.633467    -0.658738    -0.337351
H     -1.124699     0.237122     1.111405
H      0.751626    -0.444504    -1.214529
H      0.621132    -1.424694     0.240723
H      1.428683     1.250444     0.218357
9
Iteration 6, Energy=-154.0924065874, |grad|=0.015060
C     -0.917922     0.070159     0.050024
C      0.511481    -0.409571    -0.147770
O      1.449575     0.367919     0.544682
H     -1.093974     1.022660    -0.462349
H     -1.632304    -0.655152    -0.346806
H     -1.121628     0.226325     1.111550
H      0.762520    -0.456731    -1.213137
H      0.611500    -1.422217     0.250283
H      1.425377     1.255814     0.213369
9
Iteration 7, Energy=-154.0924508559, |grad|=0.005465
C     -0.917591     0.072652     0.048610
C      0.511304    -0.411178    -0.145705
O      1.449550     0.368951     0.544893
H     -1.093789     1.023491    -0.463082
H     -1.632080    -0.655059    -0.346154
H     -1.121357     0.224021     1.111062
H      0.760663    -0.457048    -1.212730
H      0.612759    -1.421721     0.249723
H      1.425166     1.255098     0.213228
9
Iteration 8, Energy=-154.0924692915, |grad|=0.004773
C     -0.917169     0.074507     0.047349
C      0.511213    -0.411518    -0.144698
O      1.449892     0.369969     0.544458
H     -1.094303     1.026335    -0.462057
H     -1.631388    -0.653951    -0.346981
H     -1.120693     0.219441     1.110417
H      0.759806    -0.459488    -1.211770
H      0.612969    -1.421263     0.251061
H      1.424299     1.255175     0.212066
9
Iteration 9, Energy=-154.0924900492, |grad|=0.004776
C     -0.916465     0.075966     0.046511
C      0.511144    -0.411457    -0.144309
O      1.449965     0.371542     0.543236
H     -1.094424     1.030350    -0.458900
H     -1.630003    -0.651208    -0.350101
H     -1.120215     0.212355     1.110168
H      0.759259    -0.464058    -1.211160
H      0.612563    -1.420018     0.254670
H      1.422803     1.255734     0.209730
9
Iteration 10, Energy=-154.0925313239, |grad|=0.005604
C     -0.915048     0.077575     0.046315
C      0.511214    -0.411673    -0.144299
O      1.449354     0.374967     0.540233
H     -1.091097     1.036627    -0.450866
H     -1.627756    -0.644933    -0.359641
H     -1.121199     0.198970     1.111407
H      0.756778    -0.472890    -1.210591
H      0.612564    -1.417061     0.263302
H      1.419818     1.257624     0.203985
9
Iteration 1, Energy=-154.0925383963, |grad|=0.005789
C     -0.914810     0.077685     0.046311
C      0.511218    -0.411975    -0.144187
O      1.449247     0.375737     0.539394
H     -1.090501     1.038382    -0.448715
H     -1.627574    -0.643226    -0.362490
H     -1.121247     0.196199     1.111564
H      0.756722    -0.475598    -1.210590
H      0.612569    -1.416779     0.265678
H      1.418902     1.258187     0.203467
9
Iteration 2, Energy=-154.0925431697, |grad|=0.005957
C     -0.914553     0.077437     0.046419
C      0.511202    -0.412061    -0.144323
O      1.449198     0.376452     0.538573
H     -1.090177     1.039865    -0.446668
H     -1.627587    -0.641917    -0.364817
H     -1.121256     0.193501     1.111839
H      0.757239    -0.477806    -1.210745
H      0.612401    -1.416565     0.267670
H      1.418140     1.258689     0.202590
9
Iteration -1, Energy=-154.0925313239, |grad|=0.005604
C     -0.915048     0.077575     0.046315
C      0.511214    -0.411673    -0.144299
O      1.449354     0.374967     0.540233
H     -1.091097     1.036627    -0.450866
H     -1.627756    -0.644933    -0.359641
H     -1.121199     0.198970     1.111407
H      0.756778    -0.472890    -1.210591
H      0.612564    -1.417061     0.263302
H      1.419818     1.257624     0.203985
9
Iteration 1, Energy=-154.0925398085, |grad|=0.007356
C     -0.915505     0.075207     0.047520
C      0.511084    -0.410962    -0.143752
O      1.449182     0.374239     0.539842
H     -1.089615     1.036687    -0.450340
H     -1.627728    -0.644180    -0.360818
H     -1.122043     0.199586     1.111515
H      0.756560    -0.472677    -1.211126
H      0.612896    -1.417301     0.263781
H      1.419795     1.258607     0.203222
9
Iteration 2, Energy=-154.0925487403, |grad|=0.004791
C     -0.915555     0.075076     0.047781
C      0.511015    -0.411353    -0.143699
O      1.449190     0.374877     0.539473
H     -1.088743     1.036232    -0.449779
H     -1.627938    -0.644076    -0.361566
H     -1.122590     0.199810     1.111774
H      0.756317    -0.472520    -1.211168
H      0.613115    -1.417250     0.263943
H      1.419817     1.258410     0.203085
9
Iteration 3, Energy=-154.0925687621, |grad|=0.004131
C     -0.915848     0.073864     0.049179
C      0.510802    -0.412560    -0.143391
O      1.449121     0.376424     0.538052
H     -1.084261     1.034303    -0.447066
H     -1.628890    -0.643331    -0.365297
H     -1.125442     0.200820     1.113024
H      0.754967    -0.471809    -1.211299
H      0.614395    -1.417259     0.264918
H      1.419782     1.258754     0.201726
9
Iteration 4, Energy=-154.0925786729, |grad|=0.003981
C     -0.915928     0.072931     0.050018
C      0.510752    -0.413115    -0.143039
O      1.449087     0.377023     0.537267
H     -1.080801     1.033625    -0.445214
H     -1.629458    -0.642483    -0.367914
H     -1.127843     0.200850     1.113827
H      0.753472    -0.471491    -1.210965
H      0.615833    -1.417588     0.265738
H      1.419512     1.259454     0.200127
9
Iteration 5, Energy=-154.0925954650, |grad|=0.006078
C     -0.916272     0.070375     0.052505
C      0.510657    -0.414592    -0.140207
O      1.448986     0.379406     0.535039
H     -1.072214     1.034234    -0.441202
H     -1.630176    -0.639352    -0.373907
H     -1.134137     0.198803     1.114626
H      0.749055    -0.471387    -1.210187
H      0.620372    -1.418548     0.267659
H      1.418356     1.260266     0.195520
9
Iteration 6, Energy=-154.0926123016, |grad|=0.006554
C     -0.915860     0.071048     0.053328
C      0.510683    -0.415768    -0.138293
O      1.449230     0.380945     0.534037
H     -1.063469     1.036071    -0.436604
H     -1.630446    -0.635443    -0.379624
H     -1.141421     0.193361     1.115329
H      0.743233    -0.472567    -1.207363
H      0.626521    -1.420270     0.270248
H      1.416154     1.261829     0.188789
9
Iteration 7, Energy=-154.0926236818, |grad|=0.003170
C     -0.915652     0.071146     0.053108
C      0.510745    -0.415670    -0.137581
O      1.449170     0.381292     0.534025
H     -1.064079     1.037796    -0.436863
H     -1.629814    -0.634671    -0.379178
H     -1.141454     0.191603     1.114851
H      0.743103    -0.473391    -1.207141
H      0.626850    -1.420171     0.270369
H      1.415757     1.261272     0.188255
9
Iteration 8, Energy=-154.0926315078, |grad|=0.002675
C     -0.915214     0.071977     0.053088
C      0.510917    -0.415749    -0.136551
O      1.449045     0.381914     0.533833
H     -1.064135     1.040299    -0.436171
H     -1.628997    -0.633128    -0.379670
H     -1.142256     0.188138     1.114271
H      0.742642    -0.475049    -1.206573
H      0.627736    -1.419967     0.271142
H      1.414889     1.260771     0.186477
9
Iteration 9, Energy=-154.0926387253, |grad|=0.003588
C     -0.914973     0.072158     0.053030
C      0.510924    -0.415748    -0.136114
O      1.449047     0.382910     0.533223
H     -1.063319     1.042213    -0.434014
H     -1.628275    -0.631151    -0.381677
H     -1.143621     0.184852     1.114575
H      0.742465    -0.476940    -1.206045
H      0.628343    -1.419672     0.272758
H      1.414036     1.260586     0.184109
9
Iteration 10, Energy=-154.0926635557, |grad|=0.005254
C     -0.914055     0.073358     0.054197
C      0.511370    -0.416579    -0.134097
O      1.448738     0.386565     0.530068
H     -1.059915     1.049373    -0.423611
H     -1.625988    -0.623485    -0.391795
H     -1.148852     0.171529     1.115584
H      0.742791    -0.485004    -1.204430
H      0.629687    -1.417470     0.279978
H      1.410851     1.260919     0.173951
9
Iteration 1, Energy=-154.0926628315, |grad|=0.005670
C     -0.913995     0.073509     0.054235
C      0.511404    -0.416593    -0.133980
O      1.448717     0.386773     0.529960
H     -1.059816     1.049941    -0.423247
H     -1.625791    -0.622999    -0.392191
H     -1.149101     0.170508     1.115606
H      0.742852    -0.485560    -1.204321
H      0.629738    -1.417333     0.280409
H      1.410619     1.260921     0.173511
9
Iteration 2, Energy=-154.0926632388, |grad|=0.005825
C     -0.913978     0.073579     0.054230
C      0.511423    -0.416584    -0.133962
O      1.448704     0.386900     0.529877
H     -1.059930     1.050177    -0.422873
H     -1.625697    -0.622702    -0.392441
H     -1.149105     0.169957     1.115626
H      0.742965    -0.485854    -1.204307
H      0.629651    -1.417214     0.280693
H      1.410518     1.260893     0.173215
9
Iteration -1, Energy=-154.0926635557, |grad|=0.005254
C     -0.914055     0.073358     0.054197
C      0.511370    -0.416579    -0.134097
O      1.448738     0.386565     0.530068
H     -1.059915     1.049373    -0.423611
H     -1.625988    -0.623485    -0.391795
H     -1.148852     0.171529     1.115584
H      0.742791    -0.485004    -1.204430
H      0.629687    -1.417470     0.279978
H      1.410851     1.260919     0.173951
9
Iteration 1, Energy=-154.0926702995, |grad|=0.005606
C     -0.914154     0.073913     0.053883
C      0.511421    -0.416312    -0.135184
O      1.448917     0.386000     0.529968
H     -1.059737     1.048253    -0.422202
H     -1.626625    -0.624058    -0.392912
H     -1.148490     0.171933     1.115860
H      0.743187    -0.485024    -1.203928
H      0.628898    -1.417639     0.280680
H      1.411209     1.262139     0.173680
9
Iteration 2, Energy=-154.0926757090, |grad|=0.003389
C     -0.914324     0.073411     0.053877
C      0.511319    -0.416427    -0.135133
O      1.449004     0.386532     0.529522
H     -1.059735     1.048162    -0.421649
H     -1.626771    -0.624119    -0.393413
H     -1.148233     0.172121     1.115887
H      0.743507    -0.485061    -1.204025
H      0.628377    -1.417494     0.280927
H      1.411483     1.262080     0.173853
9
Iteration 3, Energy=-154.0926831438, |grad|=0.001938
C     -0.914862     0.071823     0.053896
C      0.511112    -0.416521    -0.135094
O      1.449221     0.387271     0.528351
H     -1.059756     1.047871    -0.419708
H     -1.627308    -0.624355    -0.395175
H     -1.147342     0.172639     1.115951
H      0.744589    -0.485275    -1.204281
H      0.626607    -1.417027     0.281898
H      1.412366     1.262780     0.174008
9
Iteration 4, Energy=-154.0926852058, |grad|=0.001513
C     -0.914983     0.071393     0.053895
C      0.511109    -0.416464    -0.135242
O      1.449247     0.387378     0.527962
H     -1.059939     1.048000    -0.418688
H     -1.627532    -0.624412    -0.396075
H     -1.146894     0.172333     1.115932
H      0.745102    -0.485687    -1.204330
H      0.625720    -1.416663     0.282579
H      1.412796     1.263328     0.173812
9
Iteration 5, Energy=-154.0926883546, |grad|=0.001752
C     -0.915183     0.071185     0.053326
C      0.511070    -0.416177    -0.135673
O      1.449284     0.387895     0.527307
H     -1.060496     1.048475    -0.416530
H     -1.627701    -0.624237    -0.397715
H     -1.146101     0.170854     1.116061
H      0.746041    -0.486953    -1.204340
H      0.624096    -1.415883     0.284187
H      1.413615     1.264047     0.173222
9
Iteration 6, Energy=-154.0926916068, |grad|=0.004356
C     -0.915248     0.071256     0.053499
C      0.511033    -0.415804    -0.136021
O      1.449106     0.388521     0.526566
H     -1.061980     1.050866    -0.413325
H     -1.627485    -0.623306    -0.400382
H     -1.144934     0.166435     1.115390
H      0.747523    -0.489974    -1.204387
H      0.621764    -1.413965     0.287106
H      1.414848     1.265177     0.171399
9
Iteration 7, Energy=-154.0926954866, |grad|=0.002178
C     -0.915161     0.071714     0.052694
C      0.511013    -0.415548    -0.136041
O      1.449034     0.388902     0.526448
H     -1.062384     1.051528    -0.412546
H     -1.627141    -0.622747    -0.400786
H     -1.144985     0.164836     1.115698
H      0.747678    -0.490912    -1.204255
H      0.621548    -1.413588     0.287855
H      1.415025     1.265021     0.170779
9
Iteration 8, Energy=-154.0926979837, |grad|=0.001233
C     -0.915003     0.072567     0.052225
C      0.511017    -0.415319    -0.136048
O      1.448923     0.389513     0.526362
H     -1.062947     1.052748    -0.411629
H     -1.626579    -0.621831    -0.401404
H     -1.145260     0.162248     1.115757
H      0.747770    -0.492307    -1.203947
H      0.621536    -1.413033     0.288849
H      1.415169     1.264620     0.169681
9
Iteration 9, Energy=-154.0926990236, |grad|=0.001303
C     -0.914972     0.072783     0.052196
C      0.510998    -0.415257    -0.135789
O      1.448912     0.389770     0.526238
H     -1.063088     1.053449    -0.410967
H     -1.626271    -0.621202    -0.402025
H     -1.145641     0.160893     1.115765
H      0.747803    -0.492996    -1.203763
H      0.621648    -1.412767     0.289384
H      1.415237     1.264532     0.168808
9
Iteration 10, Energy=-154.0927023310, |grad|=0.003230
C     -0.914899     0.073436     0.052847
C      0.511071    -0.415271    -0.135177
O      1.449074     0.391351     0.525382
H     -1.062904     1.055761    -0.407530
H     -1.625445    -0.618796    -0.405635
H     -1.147871     0.156030     1.115816
H      0.747735    -0.495317    -1.202431
H      0.622275    -1.412083     0.291697
H      1.415591     1.264095     0.164877
9
Iteration 1, Energy=-154.0927024438, |grad|=0.003402
C     -0.914882     0.073476     0.052745
C      0.511064    -0.415283    -0.135106
O      1.449036     0.391583     0.525282
H     -1.062900     1.056127    -0.407075
H     -1.625361    -0.618408    -0.406127
H     -1.148071     0.155274     1.115863
H      0.747695    -0.495680    -1.202386
H      0.622347    -1.411995     0.292056
H      1.415582     1.264058     0.164355
9
Iteration 2, Energy=-154.0927022873, |grad|=0.003703
C     -0.914872     0.073559     0.052760
C      0.511065    -0.415258    -0.135042
O      1.449038     0.391776     0.525202
H     -1.062970     1.056428    -0.406697
H     -1.625265    -0.618102    -0.406525
H     -1.148300     0.154626     1.115866
H      0.747688    -0.495973    -1.202259
H      0.622401    -1.411908     0.292346
H      1.415639     1.264004     0.163892
9
Iteration -1, Energy=-154.0927023310, |grad|=0.003230
C     -0.914899     0.073436     0.052847
C      0.511071    -0.415271    -0.135177
O      1.449074     0.391351     0.525382
H     -1.062904     1.055761    -0.407530
H     -1.625445    -0.618796    -0.405635
H     -1.147871     0.156030     1.115816
H      0.747735    -0.495317    -1.202431
H      0.622275    -1.412083     0.291697
H      1.415591     1.264095     0.164877
9
Iteration 1, Energy=-154.0927032757, |grad|=0.003354
C     -0.914987     0.073030     0.052597
C      0.511099    -0.415185    -0.134649
O      1.449035     0.390596     0.525452
H     -1.062603     1.055622    -0.407247
H     -1.625467    -0.618720    -0.405846
H     -1.148091     0.156269     1.116026
H      0.747718    -0.495164    -1.202653
H      0.622311    -1.412096     0.291714
H      1.415613     1.264854     0.164451
9
Iteration 2, Energy=-154.0927044529, |grad|=0.001478
C     -0.914988     0.073036     0.052708
C      0.511076    -0.415269    -0.134757
O      1.449071     0.390968     0.525349
H     -1.062538     1.055592    -0.407200
H     -1.625503    -0.618746    -0.405922
H     -1.148136     0.156301     1.115987
H      0.747691    -0.495129    -1.202591
H      0.622315    -1.412124     0.291728
H      1.415639     1.264578     0.164544
9
Iteration 3, Energy=-154.0927052083, |grad|=0.001211
C     -0.915029     0.072882     0.052819
C      0.511065    -0.415349    -0.134746
O      1.449107     0.391189     0.525235
H     -1.062278     1.055476    -0.406991
H     -1.625579    -0.618761    -0.406157
H     -1.148324     0.156453     1.115999
H      0.747623    -0.495000    -1.202556
H      0.622354    -1.412192     0.291771
H      1.415687     1.264509     0.164470
9
Iteration 4, Energy=-154.0927068202, |grad|=0.001728
C     -0.915176     0.072316     0.053150
C      0.511058    -0.415561    -0.134609
O      1.449194     0.391605     0.524931
H     -1.061321     1.055077    -0.406240
H     -1.625828    -0.618779    -0.406985
H     -1.149036     0.156964     1.116080
H      0.747360    -0.494546    -1.202450
H      0.622538    -1.412429     0.291927
H      1.415838     1.264558     0.164041
9
Iteration 5, Energy=-154.0927080637, |grad|=0.001463
C     -0.915298     0.071832     0.053457
C      0.511056    -0.415739    -0.134359
O      1.449194     0.391811     0.524716
H     -1.060243     1.054779    -0.405513
H     -1.625994    -0.618679    -0.407800
H     -1.149937     0.157257     1.116183
H      0.746961    -0.494122    -1.202277
H      0.622932    -1.412655     0.292078
H      1.415956     1.264723     0.163362
9
Iteration 6, Energy=-154.0927097244, |grad|=0.001810
C     -0.915430     0.071175     0.053888
C      0.510904    -0.415965    -0.133410
O      1.449042     0.392303     0.524490
H     -1.058281     1.054832    -0.404525
H     -1.625931    -0.618041    -0.409012
H     -1.151895     0.156876     1.116384
H      0.745972    -0.493659    -1.202016
H      0.624174    -1.412974     0.292300
H      1.416072     1.264657     0.161745
9
Iteration 7, Energy=-154.0927106451, |grad|=0.002155
C     -0.915541     0.071159     0.054932
C      0.510975    -0.416320    -0.132855
O      1.448720     0.392818     0.524549
H     -1.055424     1.054988    -0.403117
H     -1.625858    -0.617095    -0.410877
H     -1.154931     0.155652     1.116477
H      0.744238    -0.493201    -1.200999
H      0.626277    -1.413459     0.292782
H      1.416170     1.264665     0.158953
9
Iteration 8, Energy=-154.0927117476, |grad|=0.000721
C     -0.915443     0.071326     0.054531
C      0.510930    -0.416220    -0.132693
O      1.448684     0.392769     0.524620
H     -1.056111     1.055303    -0.403518
H     -1.625674    -0.616998    -0.410389
H     -1.154438     0.155309     1.116534
H      0.744494    -0.493535    -1.201220
H      0.626059    -1.413242     0.292699
H      1.416125     1.264494     0.159282
9
Iteration 9, Energy=-154.0927120791, |grad|=0.000647
C     -0.915377     0.071479     0.054482
C      0.510914    -0.416148    -0.132601
O      1.448621     0.392834     0.524698
H     -1.056297     1.055614    -0.403585
H     -1.625540    -0.616776    -0.410350
H     -1.154446     0.154781     1.116525
H      0.744480    -0.493791    -1.201197
H      0.626145    -1.413149     0.292775
H      1.416125     1.264363     0.159098
9
Iteration 10, Energy=-154.0927126183, |grad|=0.000923
C     -0.915352     0.071710     0.054438
C      0.510937    -0.416182    -0.132379
O      1.448518     0.393122     0.524722
H     -1.056261     1.056014    -0.403121
H     -1.625392    -0.616273    -0.410838
H     -1.154808     0.153745     1.116593
H      0.744372    -0.494198    -1.201020
H      0.626350    -1.412976     0.293123
H      1.416262     1.264244     0.158328
9
Iteration 1, Energy=-154.0927126432, |grad|=0.001490
C     -0.915447     0.071404     0.054669
C      0.510946    -0.416182    -0.132367
O      1.448762     0.393197     0.524673
H     -1.056131     1.056238    -0.403006
H     -1.625327    -0.616110    -0.410955
H     -1.155240     0.153373     1.116551
H      0.744553    -0.494455    -1.200855
H      0.626126    -1.412896     0.293253
H      1.416268     1.264505     0.158087
9
Iteration 2, Energy=-154.0927131054, |grad|=0.000921
C     -0.915357     0.071731     0.054475
C      0.510937    -0.416176    -0.132287
O      1.448510     0.393171     0.524640
H     -1.056173     1.056341    -0.402631
H     -1.625296    -0.615982    -0.411344
H     -1.155023     0.153082     1.116607
H      0.744349    -0.494506    -1.200900
H      0.626405    -1.412878     0.293517
H      1.416297     1.264262     0.157833
9
Iteration -1, Energy=-154.0927131054, |grad|=0.000921
C     -0.915357     0.071731     0.054475
C      0.510937    -0.416176    -0.132287
O      1.448510     0.393171     0.524640
H     -1.056173     1.056341    -0.402631
H     -1.625296    -0.615982    -0.411344
H     -1.155023     0.153082     1.116607
H      0.744349    -0.494506    -1.200900
H      0.626405    -1.412878     0.293517
H      1.416297     1.264262     0.157833
9
Iteration 1, Energy=-154.0927133373, |grad|=0.000911
C     -0.915365     0.071642     0.054623
C      0.510920    -0.416123    -0.132468
O      1.448548     0.393356     0.524560
H     -1.056211     1.056344    -0.402454
H     -1.625357    -0.615989    -0.411524
H     -1.154970     0.153064     1.116527
H      0.744441    -0.494559    -1.200827
H      0.626267    -1.412900     0.293646
H      1.416376     1.264207     0.157828
9
Iteration 2, Energy=-154.0927135492, |grad|=0.000788
C     -0.915387     0.071577     0.054623
C      0.510924    -0.416106    -0.132489
O      1.448559     0.393370     0.524511
H     -1.056249     1.056329    -0.402265
H     -1.625393    -0.615974    -0.411676
H     -1.154928     0.153035     1.116523
H      0.744537    -0.494612    -1.200820
H      0.626138    -1.412865     0.293743
H      1.416449     1.264292     0.157760
9
Iteration 3, Energy=-154.0927141828, |grad|=0.001292
C     -0.915578     0.071101     0.054339
C      0.510926    -0.416157    -0.132442
O      1.448636     0.393847     0.523958
H     -1.056629     1.056306    -0.400587
H     -1.625628    -0.615773    -0.412952
H     -1.154615     0.152581     1.116640
H      0.745382    -0.495146    -1.200836
H      0.625038    -1.412423     0.294566
H      1.417117     1.264707     0.157225
9
Iteration 4, Energy=-154.0927145776, |grad|=0.001160
C     -0.915593     0.071122     0.054429
C      0.510948    -0.415953    -0.132619
O      1.448597     0.393710     0.524012
H     -1.056770     1.056608    -0.400286
H     -1.625612    -0.615668    -0.413228
H     -1.154601     0.152093     1.116579
H      0.745517    -0.495430    -1.200708
H      0.624916    -1.412347     0.294884
H      1.417246     1.264911     0.156847
9
Iteration 5, Energy=-154.0927148071, |grad|=0.000879
C     -0.915581     0.071228     0.054416
C      0.510940    -0.415958    -0.132588
O      1.448571     0.393749     0.524040
H     -1.056789     1.056730    -0.400331
H     -1.625558    -0.615627    -0.413190
H     -1.154644     0.151903     1.116576
H      0.745480    -0.495496    -1.200697
H      0.624994    -1.412310     0.294898
H      1.417238     1.264825     0.156787
9
Iteration 6, Energy=-154.0927157611, |grad|=0.000426
C     -0.915611     0.071646     0.054236
C      0.510870    -0.415839    -0.132469
O      1.448420     0.394178     0.523983
H     -1.057156     1.057693    -0.399552
H     -1.625279    -0.615120    -0.413778
H     -1.154812     0.150092     1.116557
H      0.745711    -0.496370    -1.200527
H      0.624901    -1.411823     0.295630
H      1.417606     1.264588     0.155830
9
Iteration 7, Energy=-154.0927162519, |grad|=0.000665
C     -0.915657     0.071838     0.054144
C      0.510853    -0.415747    -0.132381
O      1.448305     0.394609     0.523803
H     -1.057488     1.058445    -0.398307
H     -1.625127    -0.614580    -0.414780
H     -1.154980     0.148406     1.116506
H      0.746067    -0.497235    -1.200305
H      0.624545    -1.411299     0.296525
H      1.418132     1.264609     0.154705
9
Iteration 8, Energy=-154.0927164869, |grad|=0.001062
C     -0.915703     0.071704     0.053991
C      0.510787    -0.415521    -0.132269
O      1.448261     0.394963     0.523669
H     -1.057562     1.058960    -0.397409
H     -1.624950    -0.614072    -0.415521
H     -1.155281     0.147287     1.116573
H      0.746190    -0.497765    -1.200126
H      0.624413    -1.411084     0.297180
H      1.418495     1.264573     0.153823
9
Iteration 9, Energy=-154.0927168879, |grad|=0.000695
C     -0.915759     0.071704     0.054019
C      0.510804    -0.415477    -0.132147
O      1.448193     0.395361     0.523457
H     -1.057663     1.059439    -0.396083
H     -1.624876    -0.613553    -0.416673
H     -1.155597     0.145951     1.116534
H      0.746429    -0.498410    -1.199880
H      0.624098    -1.410683     0.298013
H      1.419022     1.264712     0.152671
9
Iteration 10, Energy=-154.0927175330, |grad|=0.000549
C     -0.915840     0.071585     0.054195
C      0.510818    -0.415467    -0.131813
O      1.448115     0.395950     0.523182
H     -1.057368     1.059984    -0.394350
H     -1.624743    -0.612780    -0.418344
H     -1.156469     0.144289     1.116555
H      0.746399    -0.499024    -1.199479
H      0.624050    -1.410319     0.299041
H      1.419688     1.264826     0.150923
9
Iteration 1, Energy=-154.0927176272, |grad|=0.000578
C     -0.915891     0.071539     0.054202
C      0.510788    -0.415452    -0.131732
O      1.448057     0.396227     0.523070
H     -1.057208     1.060374    -0.393603
H     -1.624731    -0.612467    -0.418984
H     -1.156721     0.143439     1.116596
H      0.746453    -0.499426    -1.199343
H      0.624071    -1.410151     0.299537
H      1.419924     1.264830     0.150257
9
Iteration 2, Energy=-154.0927176375, |grad|=0.000611
C     -0.915927     0.071528     0.054207
C      0.510776    -0.415415    -0.131637
O      1.448012     0.396457     0.522965
H     -1.057184     1.060672    -0.392958
H     -1.624671    -0.612185    -0.419555
H     -1.156976     0.142728     1.116605
H      0.746524    -0.499746    -1.199211
H      0.623999    -1.409975     0.299949
H      1.420172     1.264852     0.149646
9
Iteration -1, Energy=-154.0927175330, |grad|=0.000549
C     -0.915840     0.071585     0.054195
C      0.510818    -0.415467    -0.131813
O      1.448115     0.395950     0.523182
H     -1.057368     1.059984    -0.394350
H     -1.624743    -0.612780    -0.418344
H     -1.156469     0.144289     1.116555
H      0.746399    -0.499024    -1.199479
H      0.624050    -1.410319     0.299041
H      1.419688     1.264826     0.150923
9
Iteration 1, Energy=-154.0927177819, |grad|=0.001053
C     -0.915903     0.071560     0.054369
C      0.510795    -0.415586    -0.131720
O      1.448130     0.396151     0.523108
H     -1.057007     1.059918    -0.394324
H     -1.624763    -0.612803    -0.418510
H     -1.156806     0.144393     1.116599
H      0.746187    -0.498831    -1.199418
H      0.624318    -1.410432     0.298991
H      1.419698     1.264674     0.150814
9
Iteration 2, Energy=-154.0927181580, |grad|=0.000917
C     -0.915979     0.071468     0.054546
C      0.510773    -0.415662    -0.131565
O      1.448132     0.396180     0.523085
H     -1.056518     1.059838    -0.394287
H     -1.624768    -0.612799    -0.418712
H     -1.157274     0.144530     1.116682
H      0.745894    -0.498578    -1.199342
H      0.624692    -1.410592     0.298933
H      1.419698     1.264661     0.150570
9
Iteration 3, Energy=-154.0927184236, |grad|=0.001141
C     -0.915948     0.071175     0.054564
C      0.510700    -0.415718    -0.131254
O      1.448107     0.396277     0.523070
H     -1.055896     1.059734    -0.394204
H     -1.624671    -0.612595    -0.418864
H     -1.157979     0.144630     1.116802
H      0.745430    -0.498279    -1.199236
H      0.625206    -1.410740     0.298830
H      1.419699     1.264561     0.150202
9
Iteration 4, Energy=-154.0927186965, |grad|=0.000241
C     -0.915999     0.071108     0.054948
C      0.510732    -0.415822    -0.131037
O      1.448065     0.396227     0.523116
H     -1.055107     1.059565    -0.394111
H     -1.624677    -0.612527    -0.419185
H     -1.158784     0.144755     1.116803
H      0.744886    -0.497900    -1.199059
H      0.625837    -1.410968     0.298741
H      1.419696     1.264608     0.149694
9
Iteration 5, Energy=-154.0927187149, |grad|=0.000164
C     -0.915986     0.071130     0.054909
C      0.510741    -0.415803    -0.131041
O      1.448063     0.396248     0.523129
H     -1.055185     1.059588    -0.394104
H     -1.624667    -0.612502    -0.419156
H     -1.158727     0.144692     1.116787
H      0.744923    -0.497956    -1.199081
H      0.625785    -1.410943     0.298760
H      1.419702     1.264592     0.149707
