14
molecule_CCCC_best_hybrid
C     -1.636976     0.355610     0.017710
C     -0.561237    -0.454443    -0.704315
C      0.706392    -0.710831     0.116328
C      1.526571     0.538939     0.432740
H     -1.295876     1.363478     0.263913
H     -1.935735    -0.131811     0.950426
H     -2.529892     0.455802    -0.603932
H     -0.289609     0.051787    -1.637566
H     -0.986199    -1.419776    -0.996565
H      0.434371    -1.213907     1.051138
H      1.338629    -1.415265    -0.433179
H      2.439441     0.277243     0.973110
H      0.972847     1.247921     1.051988
H      1.821177     1.057560    -0.484355