14
molecule_CCCC_best_lbfgs
C     -1.632398     0.361501     0.017313
C     -0.562514    -0.453358    -0.708089
C      0.707326    -0.714431     0.107745
C      1.521498     0.534402     0.442731
H     -1.290856     1.372603     0.249298
H     -1.920345    -0.116786     0.958136
H     -2.531860     0.453620    -0.596076
H     -0.293385     0.051415    -1.642879
H     -0.991728    -1.417601    -0.997887
H      0.438611    -1.232015     1.035567
H      1.342383    -1.408069    -0.452174
H      2.440282     0.268358     0.970861
H      0.967479     1.226156     1.080852
H      1.805507     1.074205    -0.465399