14
Iteration -1, Energy=-157.3012785038, |grad|=0.021128
C     -1.603460     0.343012     0.001851
C     -0.573185    -0.573737    -0.672767
C      0.716868    -0.684706     0.139433
C      1.489178     0.616584     0.361011
H     -1.141477     0.925301     0.801027
H     -2.406812    -0.237636     0.451222
H     -2.045527     1.063104    -0.687767
H     -0.351175    -0.230762    -1.689332
H     -0.991237    -1.577324    -0.781867
H      0.448048    -1.091272     1.119314
H      1.377136    -1.413546    -0.323966
H      2.509335     0.399456     0.692860
H      1.027368     1.230358     1.131243
H      1.544940     1.231166    -0.542260
14
Iteration 1, Energy=-157.3014406065, |grad|=0.026317
C     -1.603346     0.347518     0.002813
C     -0.569740    -0.570187    -0.673405
C      0.715071    -0.685992     0.144899
C      1.491049     0.617418     0.359639
H     -1.144439     0.925985     0.801051
H     -2.411467    -0.237597     0.452923
H     -2.048791     1.060663    -0.690206
H     -0.349513    -0.228670    -1.686872
H     -0.991732    -1.577543    -0.784097
H      0.451930    -1.095252     1.121463
H      1.380189    -1.419024    -0.329156
H      2.507311     0.401199     0.691539
H      1.026055     1.233882     1.134127
H      1.547423     1.227601    -0.544717
14
Iteration 2, Energy=-157.3016031791, |grad|=0.018345
C     -1.605135     0.347654     0.002946
C     -0.569683    -0.569706    -0.671698
C      0.717520    -0.688106     0.144952
C      1.489852     0.618249     0.360775
H     -1.146077     0.927569     0.801985
H     -2.413096    -0.236429     0.453286
H     -2.051223     1.059406    -0.692070
H     -0.347634    -0.226553    -1.686069
H     -0.991439    -1.575940    -0.785635
H      0.454307    -1.098455     1.124016
H      1.380243    -1.420673    -0.331119
H      2.507144     0.402232     0.691019
H      1.026125     1.235543     1.134547
H      1.549097     1.225209    -0.546933
14
Iteration 3, Energy=-157.3019781503, |grad|=0.016642
C     -1.612680     0.348384     0.004629
C     -0.568901    -0.567598    -0.665078
C      0.725400    -0.696803     0.149184
C      1.486560     0.619442     0.363496
H     -1.155979     0.935531     0.804935
H     -2.420733    -0.230597     0.454901
H     -2.062932     1.052559    -0.700708
H     -0.338237    -0.215929    -1.679080
H     -0.990160    -1.567774    -0.793378
H      0.468122    -1.113688     1.132558
H      1.380463    -1.427447    -0.340278
H      2.506647     0.407952     0.689454
H      1.026095     1.243548     1.135395
H      1.556337     1.212421    -0.556030
14
Iteration 4, Energy=-157.3022179916, |grad|=0.020874
C     -1.616327     0.349897     0.003985
C     -0.567604    -0.564330    -0.658616
C      0.727528    -0.700773     0.150641
C      1.486460     0.617263     0.364907
H     -1.166030     0.942430     0.804810
H     -2.426470    -0.227405     0.456579
H     -2.070374     1.045436    -0.704986
H     -0.330393    -0.206962    -1.669949
H     -0.990345    -1.563276    -0.799830
H      0.480441    -1.125463     1.136272
H      1.378867    -1.428273    -0.344572
H      2.507864     0.412596     0.690459
H      1.026823     1.247364     1.131037
H      1.559560     1.201496    -0.560737
14
Iteration 5, Energy=-157.3026680374, |grad|=0.023702
C     -1.629622     0.349365     0.008640
C     -0.567592    -0.558617    -0.643862
C      0.732712    -0.709473     0.163043
C      1.489746     0.607889     0.364625
H     -1.197892     0.965501     0.801752
H     -2.438903    -0.217922     0.459919
H     -2.092070     1.025819    -0.719446
H     -0.306162    -0.178393    -1.639178
H     -0.990347    -1.547447    -0.818345
H      0.517957    -1.159093     1.141886
H      1.373705    -1.427452    -0.357268
H      2.513867     0.424753     0.696760
H      1.028067     1.256845     1.113922
H      1.566535     1.168225    -0.572448
14
Iteration 6, Energy=-157.3028529741, |grad|=0.027752
C     -1.635783     0.354847     0.005099
C     -0.566584    -0.553200    -0.632065
C      0.732843    -0.714193     0.168522
C      1.499308     0.602211     0.365177
H     -1.215245     0.981874     0.796525
H     -2.446255    -0.223884     0.466233
H     -2.098697     1.013158    -0.723818
H     -0.293884    -0.159156    -1.620923
H     -0.991886    -1.542962    -0.827266
H      0.533430    -1.173463     1.143641
H      1.371023    -1.420935    -0.363933
H      2.519186     0.425066     0.705288
H      1.026258     1.257819     1.097489
H      1.566286     1.152819    -0.579968
14
Iteration 7, Energy=-157.3029948802, |grad|=0.010813
C     -1.635177     0.352339     0.008744
C     -0.565948    -0.552249    -0.634248
C      0.731355    -0.710875     0.168061
C      1.499611     0.600813     0.363179
H     -1.215105     0.982276     0.794195
H     -2.443342    -0.225746     0.466086
H     -2.097709     1.014672    -0.724439
H     -0.295188    -0.159408    -1.619502
H     -0.992152    -1.543879    -0.825951
H      0.530847    -1.171315     1.143000
H      1.371456    -1.419429    -0.363553
H      2.520744     0.422612     0.707342
H      1.025512     1.256305     1.095669
H      1.565094     1.153882    -0.578582
14
Iteration 8, Energy=-157.3030491089, |grad|=0.007592
C     -1.635822     0.351019     0.010405
C     -0.566318    -0.552209    -0.634722
C      0.730823    -0.709470     0.168984
C      1.501397     0.599666     0.361817
H     -1.215833     0.984859     0.792066
H     -2.440841    -0.229178     0.467127
H     -2.097116     1.014367    -0.724999
H     -0.295583    -0.157122    -1.617883
H     -0.991764    -1.543146    -0.824955
H      0.528681    -1.169472     1.142399
H      1.371987    -1.417785    -0.364434
H      2.521699     0.419384     0.709925
H      1.024101     1.255157     1.092944
H      1.564590     1.153931    -0.578675
14
Iteration 9, Energy=-157.3030977359, |grad|=0.008957
C     -1.637268     0.350156     0.011844
C     -0.566014    -0.550447    -0.633497
C      0.731254    -0.709631     0.169906
C      1.503078     0.598397     0.360991
H     -1.218881     0.990064     0.789480
H     -2.438682    -0.233502     0.469564
H     -2.098695     1.011472    -0.726697
H     -0.294666    -0.151605    -1.614466
H     -0.991010    -1.541062    -0.825028
H      0.527997    -1.169246     1.143071
H      1.372437    -1.416573    -0.366940
H      2.522145     0.415702     0.713199
H      1.022264     1.254965     1.089056
H      1.566042     1.151311    -0.580481
14
Iteration 10, Energy=-157.3032018531, |grad|=0.012373
C     -1.639630     0.349688     0.014456
C     -0.564450    -0.546935    -0.631139
C      0.732535    -0.709673     0.170175
C      1.504809     0.595361     0.359670
H     -1.226215     1.001886     0.783823
H     -2.431912    -0.242744     0.476536
H     -2.105227     1.001068    -0.729718
H     -0.293302    -0.138075    -1.608167
H     -0.987901    -1.533956    -0.825498
H      0.526194    -1.167746     1.144351
H      1.372565    -1.415643    -0.371821
H      2.520141     0.407546     0.719866
H      1.018536     1.255736     1.081552
H      1.573857     1.143488    -0.584085
14
Iteration 1, Energy=-157.3031984102, |grad|=0.012613
C     -1.639372     0.349688     0.014539
C     -0.564599    -0.546836    -0.631280
C      0.732375    -0.709299     0.169989
C      1.504854     0.595282     0.359610
H     -1.226191     1.001960     0.783704
H     -2.431530    -0.243074     0.476311
H     -2.104680     1.001329    -0.729450
H     -0.293590    -0.138157    -1.607972
H     -0.987745    -1.534435    -0.825210
H      0.525589    -1.167167     1.144113
H      1.372565    -1.415857    -0.371470
H      2.519992     0.407168     0.720122
H      1.018455     1.255451     1.081311
H      1.573587     1.143789    -0.583723
14
Iteration 2, Energy=-157.3031974674, |grad|=0.013036
C     -1.639434     0.349571     0.014647
C     -0.564599    -0.546761    -0.631261
C      0.732394    -0.709257     0.170043
C      1.504971     0.595169     0.359541
H     -1.226412     1.002316     0.783535
H     -2.431315    -0.243353     0.476445
H     -2.104769     1.001142    -0.729528
H     -0.293557    -0.137794    -1.607694
H     -0.987667    -1.534291    -0.825182
H      0.525502    -1.167079     1.144113
H      1.372609    -1.415819    -0.371576
H      2.520002     0.406912     0.720361
H      1.018340     1.255435     1.081011
H      1.573685     1.143619    -0.583763
14
Iteration -1, Energy=-157.3032018531, |grad|=0.012373
C     -1.639630     0.349688     0.014456
C     -0.564450    -0.546935    -0.631139
C      0.732535    -0.709673     0.170175
C      1.504809     0.595361     0.359670
H     -1.226215     1.001886     0.783823
H     -2.431912    -0.242744     0.476536
H     -2.105227     1.001068    -0.729718
H     -0.293302    -0.138075    -1.608167
H     -0.987901    -1.533956    -0.825498
H      0.526194    -1.167746     1.144351
H      1.372565    -1.415643    -0.371821
H      2.520141     0.407546     0.719866
H      1.018536     1.255736     1.081552
H      1.573857     1.143488    -0.584085
14
Iteration 1, Energy=-157.3032352535, |grad|=0.008123
C     -1.638996     0.349412     0.012892
C     -0.564037    -0.544566    -0.630259
C      0.732685    -0.711057     0.168732
C      1.504254     0.596179     0.361052
H     -1.225886     1.002200     0.784418
H     -2.431586    -0.242655     0.477446
H     -2.106439     0.999723    -0.729266
H     -0.293482    -0.137928    -1.609071
H     -0.988115    -1.534840    -0.826126
H      0.526102    -1.167345     1.144181
H      1.371753    -1.415702    -0.370854
H      2.519305     0.407612     0.719775
H      1.019018     1.255776     1.081439
H      1.575424     1.143190    -0.584360
14
Iteration 2, Energy=-157.3032544927, |grad|=0.007407
C     -1.638638     0.349525     0.012970
C     -0.563926    -0.544277    -0.630686
C      0.732496    -0.710906     0.168642
C      1.504006     0.596170     0.361154
H     -1.225816     1.002237     0.784468
H     -2.430919    -0.242465     0.478121
H     -2.107739     0.998648    -0.729181
H     -0.293661    -0.137739    -1.609725
H     -0.987912    -1.534554    -0.826534
H      0.525989    -1.167008     1.143828
H      1.371435    -1.416287    -0.370453
H      2.518689     0.407660     0.719885
H      1.019115     1.256180     1.081774
H      1.576880     1.142817    -0.584263
14
Iteration 3, Energy=-157.3033707509, |grad|=0.017342
C     -1.638235     0.348825     0.014093
C     -0.562835    -0.541771    -0.638794
C      0.731023    -0.707611     0.163403
C      1.500441     0.598152     0.362355
H     -1.223136     1.005586     0.784311
H     -2.418262    -0.241238     0.490246
H     -2.128389     0.982336    -0.727558
H     -0.296176    -0.134114    -1.618959
H     -0.984785    -1.528703    -0.833498
H      0.521493    -1.162577     1.141603
H      1.366228    -1.424097    -0.363847
H      2.512866     0.406213     0.725274
H      1.020711     1.261468     1.084151
H      1.599055     1.137531    -0.582781
14
Iteration 4, Energy=-157.3034544042, |grad|=0.016727
C     -1.634706     0.350239     0.014481
C     -0.563135    -0.537306    -0.642311
C      0.727759    -0.706647     0.165373
C      1.504149     0.597451     0.362585
H     -1.222091     1.007627     0.780289
H     -2.412985    -0.245070     0.500352
H     -2.140395     0.973872    -0.726402
H     -0.297598    -0.131260    -1.623752
H     -0.984236    -1.527753    -0.838705
H      0.517654    -1.158411     1.138100
H      1.364908    -1.427849    -0.361473
H      2.509782     0.404136     0.730551
H      1.020394     1.264652     1.083760
H      1.610499     1.136318    -0.582848
14
Iteration 5, Energy=-157.3035264093, |grad|=0.012987
C     -1.636053     0.349526     0.014654
C     -0.563471    -0.537117    -0.642590
C      0.727980    -0.706278     0.164900
C      1.505178     0.597236     0.362592
H     -1.221525     1.009052     0.778212
H     -2.411303    -0.246915     0.502758
H     -2.142167     0.973002    -0.725876
H     -0.297627    -0.130218    -1.623993
H     -0.984433    -1.527401    -0.839926
H      0.515732    -1.157672     1.138356
H      1.364719    -1.427345    -0.361184
H      2.510942     0.402740     0.733179
H      1.020366     1.264676     1.081940
H      1.611661     1.136715    -0.583023
14
Iteration 6, Energy=-157.3040661210, |grad|=0.015470
C     -1.646554     0.341052     0.017433
C     -0.565778    -0.528068    -0.655569
C      0.724797    -0.699371     0.158012
C      1.519620     0.595348     0.363470
H     -1.212570     1.030807     0.748404
H     -2.377670    -0.271816     0.549612
H     -2.189223     0.943115    -0.717044
H     -0.301479    -0.112228    -1.635305
H     -0.983933    -1.517923    -0.864035
H      0.486537    -1.141176     1.135907
H      1.357903    -1.429844    -0.351525
H      2.515519     0.383534     0.772259
H      1.021249     1.271473     1.060791
H      1.651584     1.135096    -0.582409
14
Iteration 7, Energy=-157.3044424153, |grad|=0.025340
C     -1.653807     0.333188     0.019772
C     -0.568159    -0.515614    -0.671899
C      0.718548    -0.690530     0.150553
C      1.534103     0.591452     0.365828
H     -1.204463     1.055877     0.711319
H     -2.332706    -0.297760     0.606918
H     -2.250996     0.898507    -0.703336
H     -0.306978    -0.087973    -1.649887
H     -0.981098    -1.504256    -0.894236
H      0.453581    -1.118993     1.129660
H      1.348470    -1.436225    -0.339165
H      2.512449     0.362672     0.815274
H      1.023758     1.282214     1.037901
H      1.707299     1.127441    -0.578705
14
Iteration 8, Energy=-157.3047053572, |grad|=0.035779
C     -1.660614     0.322122     0.025296
C     -0.568565    -0.500726    -0.686762
C      0.711750    -0.686757     0.146512
C      1.546632     0.588529     0.366232
H     -1.202638     1.077476     0.675584
H     -2.289083    -0.313143     0.648526
H     -2.298848     0.858544    -0.688399
H     -0.311611    -0.065225    -1.654575
H     -0.978891    -1.494585    -0.918829
H      0.428712    -1.100018     1.123626
H      1.340488    -1.438767    -0.331022
H      2.505427     0.345681     0.847804
H      1.026422     1.291393     1.017596
H      1.750819     1.115476    -0.571590
14
Iteration 9, Energy=-157.3051878224, |grad|=0.022396
C     -1.660435     0.317037     0.026117
C     -0.570917    -0.490116    -0.699545
C      0.704262    -0.678447     0.140178
C      1.554030     0.582632     0.370168
H     -1.202736     1.099199     0.639385
H     -2.242317    -0.328389     0.695517
H     -2.353665     0.808740    -0.670420
H     -0.316408    -0.037851    -1.664256
H     -0.973678    -1.480004    -0.945671
H      0.404052    -1.079722     1.116510
H      1.330785    -1.445638    -0.321495
H      2.492794     0.329630     0.879165
H      1.030389     1.303406     0.999261
H      1.803845     1.099522    -0.564915
14
Iteration 10, Energy=-157.3056963329, |grad|=0.027386
C     -1.654392     0.315137     0.023700
C     -0.571512    -0.482681    -0.705971
C      0.696646    -0.673292     0.138259
C      1.551594     0.575287     0.372591
H     -1.215650     1.117842     0.605660
H     -2.197120    -0.327738     0.722220
H     -2.387702     0.756138    -0.645967
H     -0.319102    -0.006857    -1.661670
H     -0.966653    -1.466699    -0.965386
H      0.393222    -1.065202     1.109861
H      1.321976    -1.449174    -0.319068
H      2.470300     0.319578     0.893840
H      1.035409     1.315365     0.986470
H      1.842983     1.072297    -0.554541
14
Iteration 1, Energy=-157.3057052371, |grad|=0.027616
C     -1.653592     0.315359     0.023516
C     -0.571280    -0.482294    -0.706025
C      0.696397    -0.673021     0.138330
C      1.550831     0.575184     0.372528
H     -1.215776     1.118920     0.603222
H     -2.193469    -0.327052     0.723163
H     -2.389399     0.753225    -0.645625
H     -0.319179    -0.005882    -1.660892
H     -0.966576    -1.466246    -0.966398
H      0.393290    -1.064346     1.109664
H      1.321328    -1.449054    -0.319365
H      2.469962     0.319192     0.893868
H      1.035392     1.316036     0.985901
H      1.845367     1.072096    -0.554498
14
Iteration 2, Energy=-157.3057080131, |grad|=0.027331
C     -1.653492     0.315429     0.023489
C     -0.571215    -0.482286    -0.705988
C      0.696400    -0.672987     0.138360
C      1.550684     0.575268     0.372471
H     -1.215743     1.119001     0.602924
H     -2.192962    -0.326887     0.723169
H     -2.389511     0.753012    -0.645885
H     -0.319179    -0.006042    -1.660717
H     -0.966668    -1.466305    -0.966490
H      0.393389    -1.064260     1.109673
H      1.321239    -1.448980    -0.319456
H      2.470190     0.319197     0.893755
H      1.035281     1.316093     0.985892
H      1.845608     1.072497    -0.554653
14
Iteration -1, Energy=-157.3057080131, |grad|=0.027331
C     -1.653492     0.315429     0.023489
C     -0.571215    -0.482286    -0.705988
C      0.696400    -0.672987     0.138360
C      1.550684     0.575268     0.372471
H     -1.215743     1.119001     0.602924
H     -2.192962    -0.326887     0.723169
H     -2.389511     0.753012    -0.645885
H     -0.319179    -0.006042    -1.660717
H     -0.966668    -1.466305    -0.966490
H      0.393389    -1.064260     1.109673
H      1.321239    -1.448980    -0.319456
H      2.470190     0.319197     0.893755
H      1.035281     1.316093     0.985892
H      1.845608     1.072497    -0.554653
14
Iteration 1, Energy=-157.3058697840, |grad|=0.023145
C     -1.653831     0.309597     0.025239
C     -0.568617    -0.479194    -0.707390
C      0.698246    -0.674967     0.135145
C      1.547920     0.577907     0.371103
H     -1.214809     1.126206     0.605197
H     -2.193033    -0.327063     0.724746
H     -2.391399     0.753016    -0.650356
H     -0.317796    -0.004446    -1.658785
H     -0.967271    -1.467511    -0.967135
H      0.393686    -1.067754     1.113804
H      1.320099    -1.447228    -0.319919
H      2.472876     0.316796     0.896627
H      1.034270     1.316757     0.985971
H      1.843682     1.070636    -0.557704
14
Iteration 2, Energy=-157.3059700818, |grad|=0.013885
C     -1.653511     0.311738     0.025540
C     -0.568405    -0.480546    -0.707208
C      0.697595    -0.674804     0.136671
C      1.549005     0.577457     0.371364
H     -1.215729     1.127629     0.604851
H     -2.193438    -0.328017     0.726241
H     -2.391064     0.751821    -0.651383
H     -0.316852    -0.002861    -1.658637
H     -0.966937    -1.466850    -0.967472
H      0.394478    -1.068997     1.113931
H      1.320516    -1.447307    -0.320987
H      2.472346     0.316286     0.896981
H      1.033385     1.317372     0.986069
H      1.842635     1.069829    -0.559419
14
Iteration 3, Energy=-157.3061267194, |grad|=0.013781
C     -1.653529     0.315439     0.027329
C     -0.567323    -0.481516    -0.706215
C      0.697198    -0.675806     0.140201
C      1.550523     0.577274     0.371965
H     -1.218789     1.134225     0.603949
H     -2.193720    -0.329706     0.730476
H     -2.390074     0.747483    -0.655567
H     -0.313239     0.002485    -1.656877
H     -0.966245    -1.465575    -0.969061
H      0.397284    -1.074171     1.115413
H      1.321215    -1.446514    -0.324247
H      2.471320     0.314112     0.898792
H      1.030906     1.318921     0.985629
H      1.838495     1.066102    -0.565244
14
Iteration 4, Energy=-157.3062742336, |grad|=0.017841
C     -1.654110     0.318005     0.029601
C     -0.566474    -0.480048    -0.703528
C      0.697851    -0.677312     0.143520
C      1.550621     0.576741     0.372369
H     -1.223638     1.142116     0.601826
H     -2.192559    -0.329495     0.734441
H     -2.388469     0.741191    -0.660086
H     -0.308454     0.008886    -1.652982
H     -0.965378    -1.463525    -0.971399
H      0.401168    -1.081160     1.117216
H      1.321971    -1.445031    -0.328015
H      2.469814     0.312094     0.900616
H      1.028755     1.320099     0.983918
H      1.832926     1.060189    -0.570954
14
Iteration 5, Energy=-157.3066264380, |grad|=0.023228
C     -1.653647     0.322003     0.033474
C     -0.562658    -0.475218    -0.695131
C      0.698393    -0.682415     0.149988
C      1.547898     0.572543     0.373041
H     -1.239870     1.162841     0.593422
H     -2.187577    -0.324578     0.744741
H     -2.386007     0.722261    -0.671203
H     -0.295481     0.025833    -1.635779
H     -0.962050    -1.452261    -0.977531
H      0.413496    -1.101266     1.121061
H      1.324078    -1.440068    -0.337828
H      2.465153     0.309917     0.903509
H      1.024555     1.322054     0.976662
H      1.817740     1.041105    -0.581884
14
Iteration 6, Energy=-157.3067670269, |grad|=0.027542
C     -1.656634     0.325012     0.032687
C     -0.560238    -0.468860    -0.685507
C      0.701864    -0.688402     0.155603
C      1.544314     0.567901     0.373990
H     -1.249273     1.172989     0.585875
H     -2.183631    -0.319254     0.750772
H     -2.386881     0.709464    -0.674829
H     -0.286868     0.037275    -1.626640
H     -0.962520    -1.447758    -0.982533
H      0.420508    -1.112474     1.120727
H      1.325147    -1.438085    -0.343062
H      2.464011     0.311758     0.903181
H      1.021770     1.322563     0.971815
H      1.812454     1.030622    -0.585536
14
Iteration 7, Energy=-157.3070059511, |grad|=0.013718
C     -1.656309     0.325085     0.036292
C     -0.556966    -0.464187    -0.679488
C      0.703273    -0.693285     0.158456
C      1.540566     0.563500     0.374506
H     -1.263419     1.188760     0.576003
H     -2.177887    -0.310904     0.758333
H     -2.389634     0.693104    -0.683056
H     -0.275851     0.051010    -1.608746
H     -0.960510    -1.435713    -0.987577
H      0.430467    -1.129926     1.124032
H      1.326904    -1.435152    -0.350479
H      2.461829     0.313785     0.903541
H      1.018708     1.322530     0.964372
H      1.802851     1.014144    -0.589646
14
Iteration 8, Energy=-157.3071123802, |grad|=0.010287
C     -1.657004     0.324145     0.033482
C     -0.555549    -0.461372    -0.677243
C      0.703156    -0.697474     0.157724
C      1.539216     0.561877     0.375077
H     -1.269958     1.195687     0.568859
H     -2.175061    -0.304921     0.763457
H     -2.394412     0.683733    -0.683820
H     -0.270560     0.057337    -1.597672
H     -0.960492    -1.428163    -0.990231
H      0.434851    -1.138440     1.125094
H      1.327664    -1.435313    -0.353105
H      2.463273     0.318254     0.902589
H      1.017060     1.320670     0.959967
H      1.801838     1.006730    -0.587637
14
Iteration 9, Energy=-157.3071784745, |grad|=0.010098
C     -1.657584     0.322867     0.033818
C     -0.555455    -0.459932    -0.675733
C      0.704171    -0.699419     0.158151
C      1.538559     0.558620     0.375922
H     -1.273023     1.197733     0.562274
H     -2.172777    -0.299804     0.766020
H     -2.401372     0.678637    -0.683498
H     -0.267394     0.061192    -1.592775
H     -0.961884    -1.424650    -0.992529
H      0.436373    -1.142317     1.124376
H      1.327881    -1.437230    -0.354025
H      2.466167     0.323097     0.901608
H      1.015362     1.319152     0.958048
H      1.804999     1.004804    -0.585115
14
Iteration 10, Energy=-157.3072395337, |grad|=0.009582
C     -1.659642     0.322941     0.032781
C     -0.555364    -0.459891    -0.675508
C      0.705137    -0.701396     0.157979
C      1.539948     0.557397     0.376806
H     -1.274199     1.200075     0.556077
H     -2.171364    -0.296576     0.769996
H     -2.408508     0.673916    -0.681868
H     -0.264992     0.064620    -1.590364
H     -0.963684    -1.422699    -0.995101
H      0.436590    -1.145059     1.124005
H      1.327408    -1.439930    -0.354301
H      2.469721     0.327502     0.901675
H      1.013440     1.317046     0.957109
H      1.809531     1.004804    -0.582743
14
Iteration 1, Energy=-157.3072479192, |grad|=0.009556
C     -1.659641     0.322947     0.032763
C     -0.555391    -0.459888    -0.675415
C      0.705249    -0.701571     0.158044
C      1.540064     0.557283     0.376849
H     -1.274292     1.200425     0.555019
H     -2.170703    -0.296478     0.771060
H     -2.409921     0.672791    -0.681962
H     -0.264870     0.065025    -1.590129
H     -0.963676    -1.422079    -0.995667
H      0.436662    -1.145479     1.124068
H      1.327375    -1.440048    -0.354399
H      2.469949     0.327918     0.902022
H      1.013321     1.316941     0.956800
H      1.810066     1.004436    -0.582556
14
Iteration 2, Energy=-157.3072553746, |grad|=0.009261
C     -1.659743     0.323018     0.032658
C     -0.555406    -0.459884    -0.675387
C      0.705290    -0.701698     0.158060
C      1.540198     0.557183     0.376861
H     -1.274286     1.200868     0.554341
H     -2.170313    -0.296557     0.771814
H     -2.410712     0.671983    -0.681936
H     -0.264850     0.065501    -1.590040
H     -0.963761    -1.421804    -0.996045
H      0.436722    -1.145718     1.124067
H      1.327325    -1.440183    -0.354411
H      2.470133     0.328081     0.902321
H      1.013281     1.316923     0.956648
H      1.810396     1.004244    -0.582445
14
Iteration -1, Energy=-157.3072553746, |grad|=0.009261
C     -1.659743     0.323018     0.032658
C     -0.555406    -0.459884    -0.675387
C      0.705290    -0.701698     0.158060
C      1.540198     0.557183     0.376861
H     -1.274286     1.200868     0.554341
H     -2.170313    -0.296557     0.771814
H     -2.410712     0.671983    -0.681936
H     -0.264850     0.065501    -1.590040
H     -0.963761    -1.421804    -0.996045
H      0.436722    -1.145718     1.124067
H      1.327325    -1.440183    -0.354411
H      2.470133     0.328081     0.902321
H      1.013281     1.316923     0.956648
H      1.810396     1.004244    -0.582445
14
Iteration 1, Energy=-157.3072800235, |grad|=0.007062
C     -1.660447     0.324534     0.032315
C     -0.555578    -0.460403    -0.676255
C      0.704567    -0.701316     0.159355
C      1.542222     0.557329     0.377212
H     -1.274130     1.201840     0.553495
H     -2.170391    -0.297428     0.773357
H     -2.410700     0.670875    -0.681125
H     -0.264907     0.065950    -1.591018
H     -0.963812    -1.422483    -0.996764
H      0.436602    -1.145441     1.123606
H      1.327294    -1.441166    -0.354762
H      2.469864     0.327838     0.903143
H      1.012725     1.316712     0.957225
H      1.810964     1.005117    -0.583278
14
Iteration 2, Energy=-157.3072978620, |grad|=0.005981
C     -1.660775     0.324588     0.032856
C     -0.555923    -0.460267    -0.676877
C      0.704820    -0.701176     0.159230
C      1.542984     0.557869     0.377216
H     -1.273934     1.203123     0.552537
H     -2.170019    -0.297706     0.774466
H     -2.411375     0.669965    -0.680754
H     -0.264978     0.066267    -1.591948
H     -0.963877    -1.423209    -0.997563
H      0.436239    -1.145316     1.123740
H      1.326749    -1.441739    -0.354651
H      2.470228     0.327435     0.904387
H      1.012505     1.316234     0.957646
H      1.811630     1.005890    -0.583779
14
Iteration 3, Energy=-157.3073544374, |grad|=0.007593
C     -1.660990     0.324054     0.035151
C     -0.556862    -0.460559    -0.679551
C      0.704920    -0.699729     0.157306
C      1.546410     0.558439     0.376371
H     -1.273846     1.209004     0.545923
H     -2.166422    -0.297755     0.780575
H     -2.416444     0.664428    -0.678105
H     -0.266462     0.067413    -1.595874
H     -0.963334    -1.424413    -1.001497
H      0.434405    -1.143478     1.123417
H      1.323778    -1.444839    -0.353790
H      2.471339     0.325970     0.910573
H      1.011961     1.313702     0.959779
H      1.815820     1.009721    -0.583774
14
Iteration 4, Energy=-157.3073906069, |grad|=0.015104
C     -1.662322     0.323085     0.035018
C     -0.557653    -0.457619    -0.683055
C      0.705909    -0.700417     0.154768
C      1.548942     0.559790     0.378128
H     -1.274157     1.216376     0.535558
H     -2.159313    -0.296508     0.789816
H     -2.423408     0.654917    -0.672453
H     -0.269729     0.068311    -1.599853
H     -0.962579    -1.425796    -1.006959
H      0.431935    -1.139137     1.121214
H      1.319365    -1.448693    -0.352382
H      2.471466     0.324032     0.917839
H      1.012960     1.308736     0.961114
H      1.822857     1.014882    -0.582249
14
Iteration 5, Energy=-157.3074467442, |grad|=0.009644
C     -1.661706     0.322567     0.035698
C     -0.557991    -0.457984    -0.683858
C      0.705704    -0.699175     0.153309
C      1.549950     0.558453     0.377584
H     -1.274915     1.218232     0.530774
H     -2.155315    -0.295069     0.793094
H     -2.427272     0.651000    -0.670655
H     -0.271201     0.068910    -1.601234
H     -0.961818    -1.424643    -1.008576
H      0.430789    -1.137244     1.120341
H      1.318228    -1.450440    -0.352182
H      2.470977     0.323489     0.920037
H      1.013122     1.307609     0.961958
H      1.825720     1.016253    -0.579785
14
Iteration 6, Energy=-157.3075536561, |grad|=0.008947
C     -1.660684     0.321014     0.035430
C     -0.558393    -0.457174    -0.686905
C      0.704932    -0.696885     0.148350
C      1.552422     0.554772     0.377676
H     -1.277531     1.224821     0.513590
H     -2.139886    -0.289660     0.805662
H     -2.440747     0.635785    -0.663340
H     -0.276897     0.071042    -1.605261
H     -0.959455    -1.420851    -1.014036
H      0.426675    -1.129821     1.116540
H      1.314372    -1.456070    -0.351629
H      2.468631     0.321100     0.926900
H      1.014312     1.303173     0.964104
H      1.836521     1.020712    -0.570577
14
Iteration 7, Energy=-157.3076216004, |grad|=0.009477
C     -1.660694     0.320233     0.034234
C     -0.558619    -0.455386    -0.690382
C      0.704242    -0.696268     0.144814
C      1.553840     0.552794     0.379304
H     -1.279486     1.231119     0.499074
H     -2.125121    -0.285146     0.817344
H     -2.452486     0.621431    -0.657714
H     -0.281203     0.074068    -1.608541
H     -0.958261    -1.418496    -1.017923
H      0.422661    -1.124049     1.113648
H      1.311905    -1.459718    -0.351879
H      2.466766     0.317443     0.931992
H      1.014654     1.300355     0.965854
H      1.846076     1.023578    -0.563321
14
Iteration 8, Energy=-157.3077667849, |grad|=0.016685
C     -1.661162     0.320237     0.030320
C     -0.560679    -0.450075    -0.696780
C      0.702126    -0.691981     0.137156
C      1.555298     0.549775     0.385068
H     -1.285551     1.249452     0.461547
H     -2.082566    -0.273906     0.847326
H     -2.480129     0.580235    -0.644530
H     -0.287432     0.086385    -1.617610
H     -0.958767    -1.414874    -1.025675
H      0.410516    -1.115929     1.107535
H      1.308644    -1.461647    -0.353901
H      2.462346     0.302013     0.943906
H      1.013730     1.297066     0.969923
H      1.867898     1.025208    -0.547780
14
Iteration 9, Energy=-157.3078139858, |grad|=0.020878
C     -1.660921     0.318953     0.030543
C     -0.561168    -0.441213    -0.713464
C      0.696831    -0.690662     0.132556
C      1.558386     0.547082     0.394154
H     -1.294613     1.274041     0.413151
H     -2.025795    -0.257947     0.883678
H     -2.515767     0.526524    -0.630121
H     -0.294714     0.100491    -1.623533
H     -0.960055    -1.408508    -1.033001
H      0.395787    -1.107878     1.097306
H      1.305825    -1.458824    -0.357502
H      2.454530     0.280263     0.957413
H      1.012326     1.295587     0.974873
H      1.893620     1.024050    -0.529549
14
Iteration 10, Energy=-157.3079311044, |grad|=0.008975
C     -1.661437     0.320676     0.029228
C     -0.560467    -0.444298    -0.705822
C      0.697651    -0.691440     0.135804
C      1.554759     0.548747     0.392630
H     -1.293076     1.264675     0.432509
H     -2.044906    -0.263306     0.867642
H     -2.498374     0.545294    -0.636114
H     -0.288578     0.096623    -1.618915
H     -0.961445    -1.410134    -1.027243
H      0.401066    -1.116418     1.101338
H      1.309883    -1.452838    -0.357509
H      2.456294     0.285292     0.949759
H      1.012745     1.300134     0.972058
H      1.880157     1.018951    -0.538861
14
Iteration 1, Energy=-157.3079318879, |grad|=0.008897
C     -1.661393     0.320433     0.029416
C     -0.560546    -0.444203    -0.706117
C      0.697539    -0.691183     0.135273
C      1.555304     0.548396     0.392716
H     -1.293299     1.266106     0.429583
H     -2.042591    -0.262858     0.870058
H     -2.500646     0.542748    -0.635041
H     -0.289234     0.097076    -1.619439
H     -0.961398    -1.409805    -1.027767
H      0.400268    -1.115466     1.100801
H      1.309528    -1.453224    -0.357518
H      2.455972     0.285138     0.950646
H      1.012728     1.299941     0.972121
H      1.881914     1.018901    -0.537737
14
Iteration 2, Energy=-157.3079356062, |grad|=0.008495
C     -1.661391     0.320449     0.029391
C     -0.560521    -0.444175    -0.706146
C      0.697499    -0.691210     0.135358
C      1.555264     0.548400     0.392696
H     -1.293350     1.266491     0.429384
H     -2.042519    -0.262943     0.870504
H     -2.501068     0.542421    -0.635015
H     -0.289103     0.097223    -1.619290
H     -0.961428    -1.409621    -1.027983
H      0.400201    -1.115598     1.100813
H      1.309530    -1.453078    -0.357507
H      2.455906     0.285257     0.950979
H      1.012740     1.299953     0.972306
H      1.882270     1.018936    -0.537993
14
Iteration -1, Energy=-157.3079356062, |grad|=0.008495
C     -1.661391     0.320449     0.029391
C     -0.560521    -0.444175    -0.706146
C      0.697499    -0.691210     0.135358
C      1.555264     0.548400     0.392696
H     -1.293350     1.266491     0.429384
H     -2.042519    -0.262943     0.870504
H     -2.501068     0.542421    -0.635015
H     -0.289103     0.097223    -1.619290
H     -0.961428    -1.409621    -1.027983
H      0.400201    -1.115598     1.100813
H      1.309530    -1.453078    -0.357507
H      2.455906     0.285257     0.950979
H      1.012740     1.299953     0.972306
H      1.882270     1.018936    -0.537993
14
Iteration 1, Energy=-157.3079653512, |grad|=0.009620
C     -1.659555     0.320403     0.028183
C     -0.560685    -0.442717    -0.704415
C      0.697406    -0.690783     0.135774
C      1.553955     0.548863     0.393042
H     -1.294458     1.268885     0.428573
H     -2.043597    -0.263689     0.871555
H     -2.500338     0.541737    -0.633936
H     -0.288166     0.096339    -1.619310
H     -0.961531    -1.409742    -1.029087
H      0.400438    -1.117930     1.100238
H      1.309754    -1.452044    -0.357903
H      2.455763     0.285057     0.953052
H      1.014443     1.299814     0.971919
H      1.880600     1.018313    -0.540188
14
Iteration 2, Energy=-157.3079938572, |grad|=0.007101
C     -1.659097     0.320727     0.029189
C     -0.560339    -0.442835    -0.704306
C      0.697192    -0.690643     0.136332
C      1.554384     0.548714     0.392859
H     -1.295567     1.270622     0.427621
H     -2.043981    -0.263649     0.871564
H     -2.499776     0.541082    -0.633276
H     -0.287319     0.095561    -1.619051
H     -0.961352    -1.409042    -1.029688
H      0.400698    -1.120046     1.099719
H      1.309916    -1.450941    -0.358340
H      2.454973     0.285123     0.954427
H      1.015411     1.300377     0.972023
H      1.878887     1.017455    -0.541576
14
Iteration 3, Energy=-157.3080405033, |grad|=0.007720
C     -1.659260     0.322546     0.032202
C     -0.558849    -0.442793    -0.702729
C      0.697901    -0.692238     0.137063
C      1.554670     0.548743     0.393172
H     -1.300032     1.277059     0.423955
H     -2.044253    -0.262378     0.871898
H     -2.497930     0.538027    -0.631104
H     -0.283352     0.093422    -1.618151
H     -0.960836    -1.406383    -1.031513
H      0.401791    -1.129011     1.098374
H      1.310782    -1.446054    -0.360520
H      2.452116     0.285614     0.958727
H      1.019132     1.303215     0.972004
H      1.872147     1.012738    -0.545881
14
Iteration 4, Energy=-157.3080537126, |grad|=0.009669
C     -1.657663     0.323595     0.033036
C     -0.558503    -0.442165    -0.702378
C      0.696714    -0.691612     0.140110
C      1.554174     0.547278     0.393589
H     -1.302667     1.279908     0.422121
H     -2.043782    -0.261006     0.873163
H     -2.498825     0.536293    -0.631514
H     -0.281058     0.092928    -1.616908
H     -0.960787    -1.404967    -1.031795
H      0.403109    -1.133936     1.096968
H      1.313198    -1.445151    -0.363568
H      2.451034     0.286266     0.959839
H      1.020051     1.305558     0.972025
H      1.869033     1.009517    -0.547190
14
Iteration 5, Energy=-157.3080695591, |grad|=0.005274
C     -1.658354     0.323535     0.032400
C     -0.558502    -0.442111    -0.702228
C      0.697194    -0.692356     0.139251
C      1.553729     0.547546     0.394084
H     -1.302466     1.279592     0.422323
H     -2.043265    -0.260544     0.873344
H     -2.499119     0.536212    -0.631822
H     -0.281026     0.093417    -1.616766
H     -0.960896    -1.405020    -1.031396
H      0.403133    -1.133886     1.097400
H      1.313121    -1.445022    -0.363549
H      2.451371     0.286342     0.959190
H      1.019667     1.305552     0.971831
H      1.869443     1.009249    -0.546565
14
Iteration 6, Energy=-157.3080920823, |grad|=0.003418
C     -1.659367     0.324188     0.031296
C     -0.558200    -0.441606    -0.701426
C      0.697831    -0.694160     0.138845
C      1.552215     0.547431     0.395610
H     -1.303750     1.280717     0.421451
H     -2.041491    -0.258259     0.874642
H     -2.500361     0.534686    -0.632794
H     -0.279334     0.094492    -1.615552
H     -0.961219    -1.404255    -1.030552
H      0.404125    -1.137241     1.097576
H      1.314322    -1.443757    -0.365419
H      2.451648     0.286959     0.958324
H      1.019166     1.306967     0.971292
H      1.868443     1.006343    -0.545795
14
Iteration 7, Energy=-157.3081078398, |grad|=0.004113
C     -1.659923     0.325313     0.030503
C     -0.557771    -0.440933    -0.700298
C      0.698081    -0.695776     0.139528
C      1.550637     0.546809     0.397298
H     -1.306107     1.283055     0.419422
H     -2.039332    -0.255065     0.876505
H     -2.501879     0.532148    -0.633850
H     -0.276685     0.095687    -1.613654
H     -0.961722    -1.403071    -1.029801
H      0.405820    -1.142882     1.097106
H      1.316136    -1.441731    -0.368356
H      2.451773     0.287843     0.957988
H      1.018522     1.308828     0.970665
H      1.866476     1.002282    -0.545557
14
Iteration 8, Energy=-157.3081281757, |grad|=0.003739
C     -1.660127     0.326657     0.029845
C     -0.557804    -0.440337    -0.698887
C      0.698303    -0.696860     0.140887
C      1.550087     0.546090     0.398748
H     -1.308870     1.286793     0.414362
H     -2.036499    -0.250028     0.879494
H     -2.503436     0.527531    -0.634706
H     -0.273850     0.098034    -1.610089
H     -0.963015    -1.402059    -1.029046
H      0.408782    -1.150716     1.095814
H      1.316928    -1.438437    -0.371608
H      2.452649     0.289024     0.958458
H      1.015309     1.307985     0.969585
H      1.865573     0.998828    -0.545361
14
Iteration 9, Energy=-157.3081363840, |grad|=0.005789
C     -1.660372     0.327469     0.029999
C     -0.557006    -0.440446    -0.696927
C      0.698062    -0.697252     0.140594
C      1.549550     0.544628     0.399691
H     -1.310425     1.290199     0.409920
H     -2.034819    -0.246605     0.882051
H     -2.504693     0.524073    -0.635146
H     -0.272451     0.099522    -1.608171
H     -0.963530    -1.400867    -1.028781
H      0.410843    -1.155414     1.095401
H      1.317822    -1.437505    -0.374539
H      2.452640     0.290043     0.959402
H      1.013075     1.307105     0.969275
H      1.865331     0.997558    -0.545272
14
Iteration 10, Energy=-157.3081492109, |grad|=0.003578
C     -1.660147     0.328406     0.030296
C     -0.557136    -0.439987    -0.696037
C      0.698464    -0.698269     0.141502
C      1.549640     0.543991     0.399924
H     -1.311987     1.293709     0.404464
H     -2.033158    -0.242796     0.884933
H     -2.505692     0.520014    -0.635324
H     -0.271416     0.101041    -1.605437
H     -0.964243    -1.400002    -1.028565
H      0.413340    -1.160037     1.094148
H      1.317868    -1.436102    -0.377160
H      2.452866     0.290924     0.960785
H      1.010039     1.304782     0.968792
H      1.865589     0.996830    -0.544823
14
Iteration 1, Energy=-157.3081504855, |grad|=0.004102
C     -1.660307     0.328632     0.030171
C     -0.557035    -0.439969    -0.695751
C      0.698482    -0.698441     0.141479
C      1.549615     0.543765     0.399911
H     -1.312466     1.295031     0.403052
H     -2.032265    -0.242600     0.885922
H     -2.506350     0.518589    -0.635286
H     -0.271240     0.101387    -1.605356
H     -0.964307    -1.399756    -1.028567
H      0.413592    -1.160454     1.093950
H      1.317881    -1.435667    -0.377274
H      2.452879     0.290975     0.961178
H      1.009791     1.304579     0.968838
H      1.865483     0.996384    -0.544712
14
Iteration 2, Energy=-157.3081520389, |grad|=0.004366
C     -1.660323     0.328780     0.030123
C     -0.557014    -0.439802    -0.695655
C      0.698482    -0.698533     0.141560
C      1.549590     0.543592     0.399963
H     -1.312831     1.296018     0.401746
H     -2.031319    -0.242186     0.886813
H     -2.506973     0.517315    -0.635156
H     -0.271121     0.101770    -1.605115
H     -0.964386    -1.399518    -1.028633
H      0.413774    -1.160825     1.093710
H      1.317951    -1.435447    -0.377462
H      2.452831     0.290916     0.961627
H      1.009572     1.304367     0.968865
H      1.865647     0.996114    -0.544581
14
Iteration -1, Energy=-157.3081492109, |grad|=0.003578
C     -1.660147     0.328406     0.030296
C     -0.557136    -0.439987    -0.696037
C      0.698464    -0.698269     0.141502
C      1.549640     0.543991     0.399924
H     -1.311987     1.293709     0.404464
H     -2.033158    -0.242796     0.884933
H     -2.505692     0.520014    -0.635324
H     -0.271416     0.101041    -1.605437
H     -0.964243    -1.400002    -1.028565
H      0.413340    -1.160037     1.094148
H      1.317868    -1.436102    -0.377160
H      2.452866     0.290924     0.960785
H      1.010039     1.304782     0.968792
H      1.865589     0.996830    -0.544823
14
Iteration 1, Energy=-157.3081533017, |grad|=0.003701
C     -1.660078     0.328596     0.030361
C     -0.557697    -0.439570    -0.696624
C      0.699422    -0.699244     0.141557
C      1.549690     0.544461     0.399769
H     -1.312039     1.293971     0.403869
H     -2.033198    -0.242577     0.885389
H     -2.505504     0.519647    -0.634947
H     -0.271832     0.100673    -1.605450
H     -0.963979    -1.399912    -1.028687
H      0.413493    -1.159370     1.093880
H      1.317733    -1.436641    -0.377425
H      2.452218     0.290854     0.961169
H      1.010294     1.304445     0.968923
H      1.865507     0.997173    -0.544287
14
Iteration 2, Energy=-157.3081568427, |grad|=0.002799
C     -1.660042     0.328610     0.030524
C     -0.557651    -0.439648    -0.696522
C      0.699565    -0.699187     0.141207
C      1.549720     0.544302     0.399780
H     -1.312053     1.294246     0.403428
H     -2.033153    -0.242331     0.885661
H     -2.505492     0.519398    -0.634723
H     -0.272099     0.100560    -1.605704
H     -0.963869    -1.399869    -1.028827
H      0.413590    -1.159013     1.093885
H      1.317817    -1.437252    -0.377728
H      2.451819     0.290848     0.961485
H      1.010346     1.304290     0.969106
H      1.865528     0.997552    -0.544076
14
Iteration 3, Energy=-157.3081677838, |grad|=0.002394
C     -1.659499     0.328576     0.031508
C     -0.557087    -0.439893    -0.696361
C      0.700345    -0.699589     0.139100
C      1.549482     0.543747     0.399558
H     -1.312114     1.296134     0.400501
H     -2.032671    -0.240546     0.887668
H     -2.505711     0.517679    -0.633400
H     -0.274012     0.099774    -1.607127
H     -0.963319    -1.399831    -1.029664
H      0.414423    -1.156636     1.093501
H      1.317942    -1.440628    -0.379336
H      2.449897     0.290543     0.963900
H      1.010452     1.303022     0.970304
H      1.865900     1.000154    -0.542655
14
Iteration 4, Energy=-157.3081720503, |grad|=0.003879
C     -1.659033     0.328814     0.031344
C     -0.557407    -0.440681    -0.696900
C      0.700810    -0.699698     0.138051
C      1.550127     0.543204     0.399786
H     -1.312118     1.297194     0.398654
H     -2.031727    -0.239134     0.889338
H     -2.505962     0.516271    -0.632566
H     -0.275151     0.099598    -1.607909
H     -0.963247    -1.399902    -1.029863
H      0.415021    -1.155677     1.092914
H      1.317478    -1.441570    -0.379715
H      2.449043     0.290175     0.965128
H      1.009569     1.301957     0.971112
H      1.866625     1.001954    -0.541877
14
Iteration 5, Energy=-157.3081781388, |grad|=0.003188
C     -1.658612     0.328779     0.031413
C     -0.557477    -0.440877    -0.697471
C      0.701062    -0.699701     0.137066
C      1.550322     0.543197     0.399802
H     -1.312038     1.298311     0.396546
H     -2.030311    -0.237301     0.890979
H     -2.506447     0.514680    -0.631792
H     -0.276392     0.099363    -1.608672
H     -0.963472    -1.400471    -1.030102
H      0.415649    -1.154885     1.092211
H      1.317011    -1.442385    -0.380092
H      2.448616     0.289585     0.966557
H      1.008553     1.300426     0.971826
H      1.867563     1.003786    -0.540775
14
Iteration 6, Energy=-157.3081911690, |grad|=0.004476
C     -1.657528     0.330039     0.031318
C     -0.558465    -0.441558    -0.698725
C      0.701813    -0.699330     0.134232
C      1.550572     0.543634     0.400411
H     -1.311562     1.301110     0.388415
H     -2.023670    -0.230931     0.896723
H     -2.508978     0.508802    -0.629442
H     -0.280109     0.098750    -1.611550
H     -0.964590    -1.402251    -1.030138
H      0.417000    -1.153670     1.089815
H      1.316117    -1.443663    -0.381651
H      2.447403     0.287495     0.970110
H      1.004595     1.294879     0.974004
H      1.871431     1.009202    -0.536025
14
Iteration 7, Energy=-157.3081957974, |grad|=0.006185
C     -1.657610     0.329031     0.030512
C     -0.558921    -0.441030    -0.700724
C      0.701896    -0.699054     0.132469
C      1.551034     0.542841     0.401363
H     -1.310417     1.304943     0.381576
H     -2.016877    -0.225207     0.901360
H     -2.511605     0.503758    -0.627435
H     -0.283068     0.097648    -1.613093
H     -0.965946    -1.403593    -1.029403
H      0.417721    -1.153682     1.087579
H      1.315883    -1.443408    -0.383216
H      2.446373     0.285843     0.972219
H      1.000600     1.291118     0.976283
H      1.874966     1.013299    -0.531993
14
Iteration 8, Energy=-157.3082037238, |grad|=0.002918
C     -1.657520     0.329710     0.030439
C     -0.558897    -0.441224    -0.700080
C      0.701575    -0.699050     0.132987
C      1.550417     0.543118     0.401479
H     -1.310570     1.304001     0.382476
H     -2.017407    -0.226438     0.900516
H     -2.511679     0.504619    -0.627951
H     -0.282127     0.097844    -1.612781
H     -0.965841    -1.403074    -1.029030
H      0.417120    -1.154585     1.087986
H      1.316357    -1.442499    -0.383138
H      2.446892     0.286116     0.971292
H      1.001307     1.292074     0.975818
H      1.874403     1.011893    -0.532516
14
Iteration 9, Energy=-157.3082109232, |grad|=0.002603
C     -1.657375     0.330498     0.030107
C     -0.559022    -0.441288    -0.699841
C      0.701278    -0.699172     0.132916
C      1.549636     0.543109     0.402170
H     -1.310388     1.304465     0.380497
H     -2.015297    -0.225905     0.901327
H     -2.512903     0.503639    -0.627605
H     -0.281948     0.097475    -1.613124
H     -0.966143    -1.402687    -1.028138
H      0.416428    -1.155899     1.087567
H      1.317217    -1.441241    -0.384101
H      2.446793     0.285880     0.970918
H      1.000986     1.292202     0.976288
H      1.874766     1.011432    -0.531484
14
Iteration 10, Energy=-157.3082222542, |grad|=0.004097
C     -1.656842     0.331758     0.029474
C     -0.559350    -0.441361    -0.700144
C      0.701078    -0.699511     0.131868
C      1.548307     0.542788     0.403915
H     -1.309915     1.307306     0.373744
H     -2.009067    -0.222721     0.904693
H     -2.515915     0.499713    -0.625653
H     -0.282672     0.096141    -1.614626
H     -0.967097    -1.402461    -1.026387
H      0.415473    -1.158224     1.085719
H      1.318782    -1.439210    -0.386914
H      2.445711     0.284803     0.971699
H      0.999481     1.291403     0.978325
H      1.876056     1.012083    -0.528215
14
Iteration 1, Energy=-157.3082230681, |grad|=0.003992
C     -1.656892     0.331678     0.029374
C     -0.559324    -0.441322    -0.700085
C      0.700962    -0.699565     0.131960
C      1.548171     0.542777     0.404066
H     -1.309882     1.307460     0.373513
H     -2.008862    -0.222705     0.904754
H     -2.516067     0.499576    -0.625666
H     -0.282516     0.096028    -1.614648
H     -0.967164    -1.402372    -1.026211
H      0.415239    -1.158673     1.085683
H      1.318934    -1.438814    -0.387162
H      2.445775     0.284795     0.971499
H      0.999478     1.291587     0.978362
H      1.876041     1.011795    -0.528200
14
Iteration 2, Energy=-157.3082229053, |grad|=0.004597
C     -1.656884     0.331862     0.029374
C     -0.559301    -0.441329    -0.699859
C      0.700914    -0.699620     0.132088
C      1.548033     0.542756     0.404138
H     -1.310010     1.307456     0.373451
H     -2.008854    -0.222853     0.904681
H     -2.516140     0.499586    -0.625734
H     -0.282233     0.096113    -1.614488
H     -0.967165    -1.402197    -1.026105
H      0.415174    -1.159168     1.085712
H      1.319104    -1.438572    -0.387283
H      2.445821     0.284906     0.971371
H      0.999585     1.291813     0.978286
H      1.875841     1.011399    -0.528293
14
Iteration -1, Energy=-157.3082230681, |grad|=0.003992
C     -1.656892     0.331678     0.029374
C     -0.559324    -0.441322    -0.700085
C      0.700962    -0.699565     0.131960
C      1.548171     0.542777     0.404066
H     -1.309882     1.307460     0.373513
H     -2.008862    -0.222705     0.904754
H     -2.516067     0.499576    -0.625666
H     -0.282516     0.096028    -1.614648
H     -0.967164    -1.402372    -1.026211
H      0.415239    -1.158673     1.085683
H      1.318934    -1.438814    -0.387162
H      2.445775     0.284795     0.971499
H      0.999478     1.291587     0.978362
H      1.876041     1.011795    -0.528200
14
Iteration 1, Energy=-157.3082272129, |grad|=0.003279
C     -1.657080     0.331040     0.029477
C     -0.559164    -0.440844    -0.700692
C      0.701045    -0.699624     0.132236
C      1.548641     0.542505     0.404152
H     -1.309986     1.308271     0.373376
H     -2.008784    -0.222372     0.904575
H     -2.515713     0.499403    -0.625163
H     -0.282391     0.095699    -1.614467
H     -0.967364    -1.402768    -1.026313
H      0.415381    -1.158912     1.085233
H      1.318859    -1.438644    -0.387296
H      2.445408     0.284776     0.971914
H      0.999660     1.292076     0.978699
H      1.875380     1.011640    -0.528494
14
Iteration 2, Energy=-157.3082301259, |grad|=0.002622
C     -1.656815     0.331190     0.029517
C     -0.559179    -0.441011    -0.700745
C      0.701108    -0.699555     0.132157
C      1.548632     0.542556     0.404305
H     -1.310228     1.308579     0.373134
H     -2.008767    -0.222261     0.904631
H     -2.515592     0.499242    -0.624841
H     -0.282201     0.095613    -1.614605
H     -0.967416    -1.402885    -1.026372
H      0.415436    -1.159203     1.084997
H      1.318812    -1.438514    -0.387418
H      2.445289     0.284714     0.972350
H      0.999969     1.292309     0.978853
H      1.874843     1.011471    -0.528724
14
Iteration 3, Energy=-157.3082379871, |grad|=0.002860
C     -1.655365     0.331944     0.030036
C     -0.558562    -0.441426    -0.700846
C      0.700772    -0.699462     0.131847
C      1.548156     0.543168     0.405016
H     -1.311582     1.310684     0.371347
H     -2.008116    -0.221211     0.905112
H     -2.515383     0.498133    -0.623178
H     -0.281060     0.094723    -1.615453
H     -0.967725    -1.403524    -1.026656
H      0.415781    -1.161411     1.083459
H      1.319036    -1.437662    -0.388628
H      2.444530     0.284372     0.974969
H      1.002042     1.293766     0.979874
H      1.871368     1.010150    -0.529661
14
Iteration 4, Energy=-157.3082390298, |grad|=0.004420
C     -1.655199     0.332499     0.029516
C     -0.559124    -0.441866    -0.701041
C      0.701569    -0.699612     0.131670
C      1.547982     0.542307     0.406047
H     -1.311989     1.311829     0.370298
H     -2.007201    -0.220520     0.905902
H     -2.515429     0.497345    -0.622496
H     -0.280470     0.094113    -1.615823
H     -0.967544    -1.403003    -1.026412
H      0.415743    -1.162995     1.082984
H      1.319299    -1.436751    -0.389358
H      2.443598     0.284484     0.975441
H      1.002678     1.294778     0.980596
H      1.869977     1.009635    -0.530086
14
Iteration 5, Energy=-157.3082418522, |grad|=0.001959
C     -1.655333     0.332377     0.029674
C     -0.558883    -0.441538    -0.700938
C      0.701226    -0.699708     0.131855
C      1.547836     0.542610     0.405729
H     -1.311813     1.311545     0.370403
H     -2.007140    -0.220515     0.905808
H     -2.515634     0.497459    -0.622817
H     -0.280633     0.094161    -1.615706
H     -0.967586    -1.403073    -1.026399
H      0.415739    -1.162802     1.083086
H      1.319418    -1.436891    -0.389336
H      2.443868     0.284467     0.975186
H      1.002451     1.294466     0.980435
H      1.870377     1.009687    -0.529741
14
Iteration 6, Energy=-157.3082440577, |grad|=0.001320
C     -1.655421     0.332500     0.029676
C     -0.558711    -0.441262    -0.700816
C      0.700991    -0.699914     0.132010
C      1.547487     0.542690     0.405813
H     -1.311779     1.311782     0.369896
H     -2.006458    -0.220040     0.906113
H     -2.516030     0.497156    -0.622934
H     -0.280541     0.093898    -1.615754
H     -0.967598    -1.402952    -1.026244
H      0.415727    -1.163476     1.082957
H      1.319787    -1.436577    -0.389758
H      2.443815     0.284484     0.975078
H      1.002431     1.294506     0.980599
H      1.870193     1.009449    -0.529399
14
Iteration 7, Energy=-157.3082480775, |grad|=0.002289
C     -1.655494     0.333062     0.029469
C     -0.558479    -0.440805    -0.700591
C      0.700644    -0.700437     0.132309
C      1.546544     0.542621     0.406494
H     -1.311883     1.312933     0.368015
H     -2.004244    -0.218407     0.907251
H     -2.517069     0.495970    -0.622897
H     -0.280044     0.093028    -1.616011
H     -0.967661    -1.402552    -1.025738
H      0.415723    -1.165957     1.082364
H      1.320798    -1.435308    -0.391137
H      2.443412     0.284526     0.975031
H      1.002482     1.294919     0.981349
H      1.869164     1.008652    -0.528670
14
Iteration 8, Energy=-157.3082523620, |grad|=0.002622
C     -1.655342     0.333826     0.029053
C     -0.558411    -0.440646    -0.700477
C      0.700394    -0.700866     0.132516
C      1.545614     0.542443     0.407616
H     -1.312117     1.314671     0.365254
H     -2.001387    -0.216079     0.908800
H     -2.518175     0.494230    -0.622501
H     -0.279362     0.092144    -1.616276
H     -0.968000    -1.402337    -1.025079
H      0.415849    -1.169224     1.081414
H      1.321777    -1.433468    -0.392760
H      2.443076     0.284475     0.975114
H      1.002092     1.295218     0.982443
H      1.867885     1.007858    -0.527879
14
Iteration 9, Energy=-157.3082632752, |grad|=0.004059
C     -1.654188     0.335744     0.028285
C     -0.558719    -0.440886    -0.700668
C      0.700424    -0.701723     0.132597
C      1.543739     0.542101     0.410040
H     -1.312478     1.319543     0.356378
H     -1.994493    -0.209312     0.913122
H     -2.520468     0.489151    -0.620747
H     -0.278393     0.090700    -1.616356
H     -0.969677    -1.402836    -1.023392
H      0.416918    -1.176052     1.078403
H      1.323466    -1.429600    -0.396639
H      2.442873     0.284108     0.975762
H      0.999145     1.293555     0.985467
H      1.865742     1.007753    -0.525013
14
Iteration 10, Energy=-157.3082655875, |grad|=0.009249
C     -1.652425     0.339111     0.026348
C     -0.558027    -0.442154    -0.699321
C      0.699413    -0.703180     0.129865
C      1.540961     0.540913     0.416252
H     -1.312742     1.331037     0.336328
H     -1.979748    -0.193984     0.922826
H     -2.524976     0.477836    -0.616319
H     -0.276908     0.088031    -1.617229
H     -0.973571    -1.404236    -1.019950
H      0.419598    -1.189921     1.072735
H      1.327156    -1.422708    -0.405224
H      2.441605     0.283527     0.977441
H      0.992063     1.288750     0.992413
H      1.861494     1.009223    -0.518926
14
Iteration 1, Energy=-157.3082652811, |grad|=0.009512
C     -1.652194     0.339212     0.026268
C     -0.557959    -0.442303    -0.699210
C      0.699327    -0.703203     0.129848
C      1.540906     0.540753     0.416333
H     -1.312763     1.331332     0.336068
H     -1.979628    -0.193844     0.922893
H     -2.525020     0.477698    -0.615983
H     -0.276868     0.087969    -1.617268
H     -0.973636    -1.404401    -1.019911
H      0.419673    -1.190168     1.072492
H      1.327219    -1.422630    -0.405379
H      2.441584     0.283503     0.977744
H      0.991809     1.288598     0.992543
H      1.861168     1.009311    -0.518831
14
Iteration 2, Energy=-157.3082659676, |grad|=0.009202
C     -1.652359     0.339086     0.026355
C     -0.558007    -0.442206    -0.699298
C      0.699401    -0.703152     0.129893
C      1.541009     0.540864     0.416176
H     -1.312753     1.330940     0.336633
H     -1.980017    -0.194243     0.922659
H     -2.524880     0.478008    -0.616251
H     -0.276911     0.088057    -1.617250
H     -0.973514    -1.404280    -1.020014
H      0.419577    -1.189743     1.072749
H      1.327097    -1.422818    -0.405110
H      2.441600     0.283531     0.977561
H      0.992142     1.288813     0.992332
H      1.861419     1.009223    -0.519048
14
Iteration -1, Energy=-157.3082659676, |grad|=0.009202
C     -1.652359     0.339086     0.026355
C     -0.558007    -0.442206    -0.699298
C      0.699401    -0.703152     0.129893
C      1.541009     0.540864     0.416176
H     -1.312753     1.330940     0.336633
H     -1.980017    -0.194243     0.922659
H     -2.524880     0.478008    -0.616251
H     -0.276911     0.088057    -1.617250
H     -0.973514    -1.404280    -1.020014
H      0.419577    -1.189743     1.072749
H      1.327097    -1.422818    -0.405110
H      2.441600     0.283531     0.977561
H      0.992142     1.288813     0.992332
H      1.861419     1.009223    -0.519048
14
Iteration 1, Energy=-157.3082806092, |grad|=0.003328
C     -1.651667     0.339782     0.026645
C     -0.559267    -0.442436    -0.700665
C      0.700958    -0.703729     0.130820
C      1.540489     0.540649     0.415538
H     -1.312967     1.330549     0.336340
H     -1.980278    -0.194235     0.922953
H     -2.524876     0.477886    -0.616263
H     -0.277198     0.087785    -1.617010
H     -0.973093    -1.403737    -1.019870
H      0.419762    -1.189113     1.072322
H      1.326785    -1.423088    -0.405137
H      2.441541     0.283398     0.978067
H      0.992284     1.288723     0.992577
H      1.861329     1.009642    -0.518926
14
Iteration 2, Energy=-157.3082834806, |grad|=0.002779
C     -1.651711     0.339694     0.026631
C     -0.559203    -0.442382    -0.700588
C      0.701097    -0.703798     0.130547
C      1.540579     0.540550     0.415510
H     -1.312932     1.330649     0.336212
H     -1.980384    -0.194101     0.923047
H     -2.524739     0.477832    -0.616109
H     -0.277392     0.087705    -1.617154
H     -0.973044    -1.403754    -1.019950
H      0.419882    -1.188774     1.072356
H      1.326759    -1.423513    -0.405216
H      2.441267     0.283410     0.978304
H      0.992373     1.288561     0.992715
H      1.861249     1.009999    -0.518916
14
Iteration 3, Energy=-157.3082974841, |grad|=0.002402
C     -1.651304     0.339371     0.027318
C     -0.558606    -0.442447    -0.700386
C      0.702104    -0.704392     0.128374
C      1.541122     0.540241     0.414682
H     -1.312741     1.331264     0.334784
H     -1.981372    -0.192720     0.923983
H     -2.523980     0.477297    -0.615082
H     -0.279403     0.086956    -1.618537
H     -0.972478    -1.403766    -1.020629
H      0.421187    -1.185342     1.072455
H      1.326490    -1.427772    -0.406036
H      2.439106     0.283320     0.980847
H      0.993143     1.286601     0.994018
H      1.860534     1.013467    -0.518400
14
Iteration 4, Energy=-157.3083011494, |grad|=0.002986
C     -1.650929     0.339261     0.026998
C     -0.558767    -0.442946    -0.701029
C      0.702900    -0.704551     0.127324
C      1.541366     0.540219     0.414524
H     -1.312311     1.331880     0.334218
H     -1.981386    -0.191938     0.925007
H     -2.523864     0.476863    -0.614895
H     -0.280565     0.086741    -1.619075
H     -0.972513    -1.404211    -1.020765
H      0.421894    -1.183871     1.072397
H      1.325685    -1.428949    -0.405765
H      2.438938     0.282981     0.981554
H      0.992410     1.285087     0.994690
H      1.860944     1.015515    -0.517796
14
Iteration 5, Energy=-157.3083046881, |grad|=0.001689
C     -1.650574     0.339396     0.027328
C     -0.558895    -0.443371    -0.701595
C      0.703099    -0.704319     0.126935
C      1.541764     0.540156     0.414171
H     -1.311904     1.332078     0.333412
H     -1.981025    -0.190884     0.925661
H     -2.523863     0.476386    -0.614840
H     -0.281734     0.086529    -1.619741
H     -0.972668    -1.404887    -1.020889
H      0.422619    -1.182421     1.072089
H      1.325205    -1.430260    -0.405717
H      2.438896     0.282617     0.982008
H      0.991350     1.283466     0.995443
H      1.861532     1.017592    -0.516876
14
Iteration 6, Energy=-157.3083067283, |grad|=0.001606
C     -1.650383     0.339687     0.027413
C     -0.559302    -0.443673    -0.701741
C      0.703178    -0.704133     0.126460
C      1.541740     0.540498     0.414153
H     -1.311503     1.331958     0.332615
H     -1.980228    -0.189972     0.926062
H     -2.523954     0.475982    -0.614838
H     -0.282539     0.086373    -1.620316
H     -0.972899    -1.405493    -1.020785
H      0.422918    -1.181706     1.071982
H      1.324882    -1.430688    -0.405553
H      2.439304     0.282238     0.981853
H      0.990248     1.281943     0.995912
H      1.862339     1.019066    -0.515828
14
Iteration 7, Energy=-157.3083081235, |grad|=0.001349
C     -1.650406     0.339691     0.027188
C     -0.559570    -0.443747    -0.701984
C      0.703019    -0.703945     0.126359
C      1.541840     0.540406     0.414247
H     -1.311084     1.331984     0.331934
H     -1.979353    -0.189338     0.926334
H     -2.524098     0.475727    -0.614778
H     -0.283081     0.086049    -1.620515
H     -0.973108    -1.405765    -1.020455
H      0.422908    -1.181493     1.071870
H      1.324909    -1.430622    -0.405574
H      2.439548     0.282039     0.981299
H      0.989264     1.281102     0.996410
H      1.863014     1.019991    -0.514946
14
Iteration 8, Energy=-157.3083095665, |grad|=0.001094
C     -1.650327     0.339760     0.026893
C     -0.559601    -0.443799    -0.701893
C      0.702912    -0.703964     0.126082
C      1.541533     0.540295     0.414547
H     -1.310616     1.332086     0.330872
H     -1.978296    -0.188751     0.926660
H     -2.524452     0.475505    -0.614592
H     -0.283578     0.085518    -1.620889
H     -0.973343    -1.405885    -1.019923
H      0.422640    -1.181433     1.071725
H      1.325168    -1.430361    -0.405855
H      2.439642     0.281842     0.980730
H      0.988611     1.280356     0.997087
H      1.863508     1.020911    -0.514055
14
Iteration 9, Energy=-157.3083113139, |grad|=0.001828
C     -1.650292     0.339860     0.026500
C     -0.559649    -0.443959    -0.702038
C      0.702924    -0.704145     0.125526
C      1.541273     0.540464     0.414825
H     -1.309851     1.332661     0.328860
H     -1.976558    -0.187775     0.927207
H     -2.524917     0.475067    -0.613975
H     -0.284221     0.084413    -1.621600
H     -0.973732    -1.406055    -1.018914
H      0.422078    -1.181572     1.071367
H      1.325716    -1.429876    -0.406557
H      2.439446     0.281467     0.980184
H      0.988015     1.279386     0.998501
H      1.863570     1.022142    -0.512497
14
Iteration 10, Energy=-157.3083137341, |grad|=0.002031
C     -1.649763     0.340225     0.026061
C     -0.559750    -0.444197    -0.702250
C      0.703019    -0.704124     0.124930
C      1.540667     0.540297     0.415659
H     -1.309025     1.333516     0.326196
H     -1.974512    -0.186599     0.928060
H     -2.525602     0.474455    -0.613136
H     -0.284879     0.082955    -1.622666
H     -0.974272    -1.406438    -1.017691
H      0.421460    -1.181848     1.070662
H      1.326466    -1.429333    -0.407597
H      2.439080     0.280981     0.979875
H      0.987649     1.278391     1.000424
H      1.863265     1.023800    -0.511137
14
Iteration 1, Energy=-157.3083139410, |grad|=0.002142
C     -1.649674     0.340300     0.026119
C     -0.559787    -0.444226    -0.702280
C      0.703039    -0.704150     0.124818
C      1.540572     0.540281     0.415810
H     -1.308864     1.333698     0.325304
H     -1.973945    -0.186220     0.928264
H     -2.525735     0.474333    -0.612987
H     -0.285052     0.082703    -1.622808
H     -0.974399    -1.406478    -1.017476
H      0.421405    -1.181984     1.070532
H      1.326556    -1.429453    -0.407881
H      2.439113     0.280912     0.979795
H      0.987517     1.278075     1.000824
H      1.863250     1.024173    -0.510711
14
Iteration 2, Energy=-157.3083138149, |grad|=0.002372
C     -1.649623     0.340363     0.026047
C     -0.559816    -0.444228    -0.702290
C      0.703031    -0.704153     0.124716
C      1.540469     0.540276     0.415946
H     -1.308715     1.333775     0.324742
H     -1.973511    -0.185980     0.928394
H     -2.525859     0.474253    -0.612877
H     -0.285162     0.082506    -1.622947
H     -0.974508    -1.406506    -1.017277
H      0.421292    -1.182084     1.070461
H      1.326629    -1.429368    -0.408058
H      2.439101     0.280868     0.979656
H      0.987374     1.277869     1.001150
H      1.863286     1.024450    -0.510395
14
Iteration -1, Energy=-157.3083139410, |grad|=0.002142
C     -1.649674     0.340300     0.026119
C     -0.559787    -0.444226    -0.702280
C      0.703039    -0.704150     0.124818
C      1.540572     0.540281     0.415810
H     -1.308864     1.333698     0.325304
H     -1.973945    -0.186220     0.928264
H     -2.525735     0.474333    -0.612987
H     -0.285052     0.082703    -1.622808
H     -0.974399    -1.406478    -1.017476
H      0.421405    -1.181984     1.070532
H      1.326556    -1.429453    -0.407881
H      2.439113     0.280912     0.979795
H      0.987517     1.278075     1.000824
H      1.863250     1.024173    -0.510711
14
Iteration 1, Energy=-157.3083157583, |grad|=0.002162
C     -1.649289     0.340647     0.026131
C     -0.559948    -0.444483    -0.702729
C      0.703166    -0.704319     0.125120
C      1.540496     0.540410     0.415611
H     -1.308984     1.333999     0.325305
H     -1.973999    -0.186065     0.928493
H     -2.525721     0.474109    -0.612901
H     -0.284890     0.082672    -1.623011
H     -0.974473    -1.406823    -1.017530
H      0.421702    -1.182119     1.069954
H      1.326268    -1.429145    -0.407745
H      2.439330     0.280708     0.980437
H      0.987699     1.278266     1.001119
H      1.862640     1.024105    -0.510930
14
Iteration 2, Energy=-157.3083171834, |grad|=0.001329
C     -1.649199     0.340689     0.026136
C     -0.559880    -0.444612    -0.702835
C      0.703081    -0.704148     0.124941
C      1.540609     0.540391     0.415842
H     -1.309023     1.334362     0.325299
H     -1.973954    -0.185818     0.928570
H     -2.525644     0.473927    -0.612765
H     -0.284741     0.082607    -1.623229
H     -0.974583    -1.407156    -1.017604
H      0.421885    -1.182387     1.069737
H      1.326157    -1.428996    -0.407707
H      2.439281     0.280629     0.980809
H      0.987891     1.278397     1.001335
H      1.862117     1.024077    -0.511206
14
Iteration 3, Energy=-157.3083186103, |grad|=0.000995
C     -1.648978     0.340869     0.026193
C     -0.559859    -0.444713    -0.703053
C      0.702911    -0.703796     0.124718
C      1.540706     0.540546     0.416214
H     -1.309143     1.334935     0.325090
H     -1.973688    -0.185143     0.928695
H     -2.525525     0.473533    -0.612480
H     -0.284481     0.082246    -1.623628
H     -0.974701    -1.407630    -1.017681
H      0.422196    -1.183092     1.069346
H      1.326182    -1.428789    -0.407882
H      2.439042     0.280492     0.981447
H      0.988419     1.278596     1.001816
H      1.860915     1.023908    -0.511472
14
Iteration 4, Energy=-157.3083194515, |grad|=0.001362
C     -1.648873     0.341054     0.025969
C     -0.559879    -0.444759    -0.703005
C      0.703019    -0.703918     0.124583
C      1.540517     0.540405     0.416574
H     -1.309191     1.335337     0.324722
H     -1.973302    -0.184549     0.928937
H     -2.525504     0.473243    -0.612246
H     -0.284352     0.081811    -1.623966
H     -0.974679    -1.407677    -1.017608
H      0.422351    -1.183711     1.069042
H      1.326290    -1.428433    -0.408142
H      2.438761     0.280447     0.981694
H      0.988784     1.278851     1.002348
H      1.860054     1.023863    -0.511578
14
Iteration 5, Energy=-157.3083207645, |grad|=0.001330
C     -1.648659     0.341336     0.025868
C     -0.559715    -0.444755    -0.703002
C      0.702948    -0.704089     0.124586
C      1.540092     0.540309     0.416978
H     -1.309236     1.335895     0.323936
H     -1.972539    -0.183513     0.929274
H     -2.525671     0.472829    -0.612024
H     -0.284231     0.080996    -1.624378
H     -0.974639    -1.407634    -1.017399
H      0.422542    -1.184769     1.068596
H      1.326693    -1.427947    -0.408782
H      2.438372     0.280384     0.981909
H      0.989275     1.279157     1.003221
H      1.858765     1.023764    -0.511461
14
Iteration 6, Energy=-157.3083223549, |grad|=0.002910
C     -1.648039     0.342341     0.025165
C     -0.559812    -0.445021    -0.702890
C      0.703057    -0.704453     0.124375
C      1.538921     0.540726     0.418101
H     -1.309136     1.337364     0.321389
H     -1.970429    -0.181154     0.930601
H     -2.526176     0.471819    -0.611580
H     -0.283894     0.079196    -1.625222
H     -0.974752    -1.407599    -1.016578
H      0.422720    -1.187745     1.067894
H      1.327782    -1.426469    -0.410459
H      2.437881     0.280161     0.981769
H      0.989790     1.279166     1.005285
H      1.856082     1.023631    -0.510525
14
Iteration 7, Energy=-157.3083246952, |grad|=0.001492
C     -1.647955     0.342589     0.025128
C     -0.559687    -0.444968    -0.702952
C      0.702988    -0.704823     0.124786
C      1.538428     0.540387     0.418577
H     -1.308943     1.338125     0.319860
H     -1.969191    -0.179864     0.931078
H     -2.526506     0.471385    -0.611457
H     -0.283836     0.078301    -1.625433
H     -0.974941    -1.407641    -1.016053
H      0.422828    -1.189039     1.067312
H      1.328413    -1.425650    -0.411374
H      2.437740     0.280125     0.981343
H      0.989512     1.279174     1.006480
H      1.855145     1.023861    -0.509971
14
Iteration 8, Energy=-157.3083268949, |grad|=0.001599
C     -1.647798     0.343002     0.025043
C     -0.559645    -0.445144    -0.702900
C      0.702882    -0.705148     0.125027
C      1.537826     0.540235     0.419137
H     -1.308622     1.338976     0.317854
H     -1.967779    -0.178528     0.931720
H     -2.526898     0.470913    -0.611369
H     -0.283757     0.077580    -1.625560
H     -0.975365    -1.407897    -1.015349
H      0.422899    -1.190459     1.066764
H      1.329029    -1.424632    -0.412280
H      2.438020     0.280039     0.980659
H      0.988710     1.278686     1.007718
H      1.854497     1.024340    -0.509140
14
Iteration 9, Energy=-157.3083303094, |grad|=0.002178
C     -1.647233     0.343944     0.024529
C     -0.559799    -0.445716    -0.702890
C      0.702709    -0.705628     0.125059
C      1.536769     0.540101     0.420468
H     -1.307938     1.341096     0.313390
H     -1.964794    -0.175390     0.933277
H     -2.527531     0.469670    -0.610898
H     -0.283536     0.076020    -1.625852
H     -0.976389    -1.408691    -1.013812
H      0.423272    -1.193612     1.065459
H      1.330169    -1.422470    -0.414109
H      2.438576     0.279816     0.979546
H      0.987053     1.277304     1.010513
H      1.852670     1.025519    -0.507356
14
Iteration 10, Energy=-157.3083350204, |grad|=0.003457
C     -1.645941     0.345847     0.023988
C     -0.560010    -0.446924    -0.702631
C      0.702950    -0.706278     0.124418
C      1.534698     0.539682     0.422877
H     -1.306850     1.344491     0.305457
H     -1.959913    -0.169232     0.935729
H     -2.528459     0.467157    -0.609756
H     -0.283421     0.073336    -1.626687
H     -0.978135    -1.410147    -1.011295
H      0.424492    -1.198303     1.062902
H      1.331761    -1.419668    -0.417176
H      2.439083     0.279495     0.978613
H      0.984758     1.274090     1.015436
H      1.848985     1.028416    -0.504551
14
Iteration 1, Energy=-157.3083348347, |grad|=0.003671
C     -1.645786     0.346049     0.023910
C     -0.560030    -0.447058    -0.702603
C      0.702939    -0.706319     0.124384
C      1.534486     0.539637     0.423099
H     -1.306827     1.344694     0.304990
H     -1.959617    -0.168770     0.935882
H     -2.528507     0.467028    -0.609710
H     -0.283406     0.073096    -1.626730
H     -0.978192    -1.410306    -1.011132
H      0.424593    -1.198682     1.062743
H      1.331888    -1.419464    -0.417396
H      2.439125     0.279484     0.978386
H      0.984727     1.273972     1.015850
H      1.848622     1.028456    -0.504414
14
Iteration 2, Energy=-157.3083341733, |grad|=0.003762
C     -1.645760     0.346061     0.023914
C     -0.560027    -0.447081    -0.702569
C      0.702948    -0.706308     0.124437
C      1.534477     0.539619     0.423066
H     -1.306967     1.344494     0.305447
H     -1.959902    -0.168955     0.935750
H     -2.528447     0.467192    -0.609838
H     -0.283377     0.073163    -1.626643
H     -0.978000    -1.410285    -1.011271
H      0.424598    -1.198588     1.062884
H      1.331847    -1.419586    -0.417299
H      2.439080     0.279550     0.978358
H      0.984978     1.274282     1.015701
H      1.848580     1.028028    -0.504632
14
Iteration -1, Energy=-157.3083350204, |grad|=0.003457
C     -1.645941     0.345847     0.023988
C     -0.560010    -0.446924    -0.702631
C      0.702950    -0.706278     0.124418
C      1.534698     0.539682     0.422877
H     -1.306850     1.344491     0.305457
H     -1.959913    -0.169232     0.935729
H     -2.528459     0.467157    -0.609756
H     -0.283421     0.073336    -1.626687
H     -0.978135    -1.410147    -1.011295
H      0.424492    -1.198303     1.062902
H      1.331761    -1.419668    -0.417176
H      2.439083     0.279495     0.978613
H      0.984758     1.274090     1.015436
H      1.848985     1.028416    -0.504551
14
Iteration 1, Energy=-157.3083374113, |grad|=0.001610
C     -1.645962     0.345710     0.023414
C     -0.560121    -0.446912    -0.702616
C      0.702983    -0.706304     0.124010
C      1.535132     0.539869     0.422712
H     -1.306761     1.344734     0.305506
H     -1.960057    -0.169220     0.936015
H     -2.528267     0.467067    -0.609566
H     -0.283502     0.073323    -1.626673
H     -0.978122    -1.410149    -1.011287
H      0.424573    -1.198226     1.063038
H      1.331688    -1.419866    -0.417131
H      2.438882     0.279521     0.978733
H      0.984723     1.273924     1.015528
H      1.848808     1.028492    -0.504360
14
Iteration 2, Energy=-157.3083385220, |grad|=0.001564
C     -1.645847     0.345663     0.023303
C     -0.560185    -0.446954    -0.702763
C      0.703046    -0.706259     0.123773
C      1.535342     0.539967     0.422609
H     -1.306708     1.344860     0.305467
H     -1.960182    -0.169063     0.936148
H     -2.528202     0.466954    -0.609490
H     -0.283632     0.073295    -1.626674
H     -0.978110    -1.410171    -1.011286
H      0.424746    -1.198020     1.063067
H      1.331608    -1.420216    -0.417141
H      2.438743     0.279527     0.978966
H      0.984718     1.273636     1.015620
H      1.848661     1.028744    -0.504274
14
Iteration 3, Energy=-157.3083415304, |grad|=0.002016
C     -1.645548     0.345652     0.023197
C     -0.560230    -0.447117    -0.703018
C      0.703426    -0.706240     0.122958
C      1.535797     0.540032     0.422285
H     -1.306502     1.345190     0.305180
H     -1.960571    -0.168310     0.936517
H     -2.527963     0.466489    -0.609228
H     -0.284172     0.073268    -1.626939
H     -0.978130    -1.410402    -1.011352
H      0.425499    -1.197023     1.063006
H      1.331215    -1.421596    -0.417166
H      2.438319     0.279532     0.979929
H      0.984631     1.272476     1.016059
H      1.848226     1.030011    -0.504105
14
Iteration 4, Energy=-157.3083437867, |grad|=0.001973
C     -1.645270     0.345784     0.023442
C     -0.560196    -0.447318    -0.703286
C      0.703915    -0.706532     0.122446
C      1.536159     0.539845     0.421782
H     -1.306231     1.345414     0.304566
H     -1.960728    -0.167307     0.936926
H     -2.527835     0.466013    -0.609142
H     -0.284960     0.073136    -1.627343
H     -0.978134    -1.410592    -1.011371
H      0.426359    -1.195743     1.062811
H      1.330803    -1.423100    -0.417308
H      2.437959     0.279535     0.980662
H      0.984108     1.271103     1.016759
H      1.848045     1.031724    -0.503620
14
Iteration 5, Energy=-157.3083442915, |grad|=0.002515
C     -1.645046     0.345904     0.023616
C     -0.560048    -0.447550    -0.703129
C      0.704578    -0.706531     0.121250
C      1.535767     0.539698     0.422006
H     -1.305842     1.345713     0.303643
H     -1.960667    -0.166052     0.937481
H     -2.527681     0.465497    -0.609068
H     -0.285924     0.072941    -1.627964
H     -0.978232    -1.410910    -1.011388
H      0.427218    -1.194456     1.062977
H      1.330376    -1.424844    -0.417519
H      2.437835     0.279498     0.981237
H      0.983491     1.269030     1.017376
H      1.848171     1.034025    -0.503192
14
Iteration 6, Energy=-157.3083455933, |grad|=0.000823
C     -1.645144     0.345938     0.023678
C     -0.560071    -0.447482    -0.703161
C      0.704349    -0.706644     0.121820
C      1.535847     0.539645     0.421845
H     -1.305917     1.345587     0.303695
H     -1.960471    -0.166309     0.937353
H     -2.527766     0.465667    -0.609170
H     -0.285746     0.072911    -1.627829
H     -0.978228    -1.410829    -1.011330
H      0.426960    -1.194800     1.062855
H      1.330553    -1.424279    -0.417538
H      2.437970     0.279496     0.980814
H      0.983363     1.269544     1.017348
H      1.848298     1.033516    -0.503057
14
Iteration 7, Energy=-157.3083459995, |grad|=0.000786
C     -1.645167     0.345979     0.023689
C     -0.560101    -0.447497    -0.703139
C      0.704323    -0.706719     0.121937
C      1.535796     0.539610     0.421864
H     -1.305882     1.345586     0.303501
H     -1.960245    -0.166252     0.937405
H     -2.527798     0.465703    -0.609228
H     -0.285800     0.072819    -1.627842
H     -0.978258    -1.410828    -1.011254
H      0.426890    -1.194879     1.062841
H      1.330607    -1.424114    -0.417588
H      2.438082     0.279480     0.980514
H      0.983100     1.269476     1.017454
H      1.848449     1.033598    -0.502830
14
Iteration 8, Energy=-157.3083468219, |grad|=0.000981
C     -1.645118     0.346075     0.023614
C     -0.560170    -0.447610    -0.703127
C      0.704305    -0.706798     0.121918
C      1.535650     0.539576     0.421969
H     -1.305670     1.345779     0.302715
H     -1.959588    -0.165772     0.937728
H     -2.527824     0.465650    -0.609286
H     -0.286142     0.072473    -1.627976
H     -0.978416    -1.410973    -1.010999
H      0.426891    -1.194903     1.062811
H      1.330699    -1.424027    -0.417790
H      2.438362     0.279407     0.979869
H      0.982267     1.268762     1.017945
H      1.848753     1.034324    -0.502068
14
Iteration 9, Energy=-157.3083475375, |grad|=0.001680
C     -1.644785     0.346372     0.023434
C     -0.560509    -0.447999    -0.703252
C      0.704564    -0.707017     0.121537
C      1.535553     0.539597     0.422310
H     -1.305330     1.346223     0.301364
H     -1.958600    -0.164851     0.938234
H     -2.527888     0.465402    -0.609181
H     -0.286541     0.071896    -1.628297
H     -0.978708    -1.411290    -1.010479
H      0.426954    -1.195030     1.062576
H      1.330700    -1.423737    -0.418000
H      2.438593     0.279253     0.979252
H      0.981296     1.267613     1.018920
H      1.848698     1.035530    -0.501093
14
Iteration 10, Energy=-157.3083485477, |grad|=0.001084
C     -1.644575     0.346517     0.023173
C     -0.560524    -0.448215    -0.703346
C      0.704533    -0.706932     0.121183
C      1.535364     0.539618     0.422543
H     -1.304913     1.346820     0.300027
H     -1.957675    -0.163817     0.938755
H     -2.527877     0.465087    -0.608964
H     -0.286997     0.071269    -1.628638
H     -0.979086    -1.411764    -1.010007
H      0.427135    -1.195094     1.062297
H      1.330851    -1.423807    -0.418376
H      2.438814     0.279087     0.978891
H      0.980457     1.266360     1.019945
H      1.848489     1.036834    -0.500161
14
Iteration 1, Energy=-157.3083487216, |grad|=0.001288
C     -1.644484     0.346644     0.023142
C     -0.560498    -0.448300    -0.703300
C      0.704627    -0.707025     0.121139
C      1.535263     0.539598     0.422605
H     -1.304838     1.347012     0.299446
H     -1.957385    -0.163435     0.938941
H     -2.527879     0.465003    -0.608944
H     -0.287072     0.071121    -1.628692
H     -0.979188    -1.411826    -1.009872
H      0.427191    -1.195109     1.062198
H      1.330859    -1.423792    -0.418455
H      2.438870     0.279073     0.979109
H      0.980175     1.266037     1.020297
H      1.848436     1.037151    -0.499859
14
Iteration 2, Energy=-157.3083487942, |grad|=0.001399
C     -1.644419     0.346735     0.023105
C     -0.560522    -0.448373    -0.703304
C      0.704665    -0.707065     0.121069
C      1.535176     0.539582     0.422690
H     -1.304775     1.347175     0.298968
H     -1.957104    -0.163098     0.939108
H     -2.527905     0.464937    -0.608949
H     -0.287187     0.070983    -1.628727
H     -0.979275    -1.411904    -1.009758
H      0.427204    -1.195235     1.062134
H      1.330921    -1.423758    -0.418576
H      2.438938     0.279075     0.979008
H      0.979937     1.265765     1.020583
H      1.848437     1.037411    -0.499582
14
Iteration -1, Energy=-157.3083485477, |grad|=0.001084
C     -1.644575     0.346517     0.023173
C     -0.560524    -0.448215    -0.703346
C      0.704533    -0.706932     0.121183
C      1.535364     0.539618     0.422543
H     -1.304913     1.346820     0.300027
H     -1.957675    -0.163817     0.938755
H     -2.527877     0.465087    -0.608964
H     -0.286997     0.071269    -1.628638
H     -0.979086    -1.411764    -1.010007
H      0.427135    -1.195094     1.062297
H      1.330851    -1.423807    -0.418376
H      2.438814     0.279087     0.978891
H      0.980457     1.266360     1.019945
H      1.848489     1.036834    -0.500161
14
Iteration 1, Energy=-157.3083490997, |grad|=0.001484
C     -1.644522     0.346528     0.023109
C     -0.560281    -0.448161    -0.703324
C      0.704327    -0.706630     0.121106
C      1.535103     0.539652     0.422665
H     -1.304840     1.346996     0.299907
H     -1.957639    -0.163637     0.938759
H     -2.527942     0.464970    -0.608803
H     -0.286904     0.071113    -1.628764
H     -0.979170    -1.411883    -1.009931
H      0.427171    -1.195315     1.062175
H      1.331082    -1.423927    -0.418603
H      2.438728     0.279043     0.979248
H      0.980893     1.266392     1.020128
H      1.847990     1.036821    -0.500349
14
Iteration 2, Energy=-157.3083496954, |grad|=0.001018
C     -1.644435     0.346609     0.023084
C     -0.560316    -0.448193    -0.703393
C      0.704395    -0.706714     0.121061
C      1.535130     0.539659     0.422695
H     -1.304808     1.347083     0.299796
H     -1.957596    -0.163507     0.938770
H     -2.527997     0.464880    -0.608705
H     -0.286826     0.071000    -1.628862
H     -0.979173    -1.411886    -1.009840
H      0.427190    -1.195450     1.062036
H      1.331126    -1.423837    -0.418670
H      2.438573     0.279025     0.979430
H      0.981125     1.266503     1.020337
H      1.847608     1.036790    -0.500415
14
Iteration 3, Energy=-157.3083507423, |grad|=0.000682
C     -1.644239     0.346878     0.022966
C     -0.560315    -0.448252    -0.703587
C      0.704564    -0.706958     0.120957
C      1.535047     0.539620     0.422931
H     -1.304641     1.347497     0.299259
H     -1.957274    -0.162896     0.938821
H     -2.528162     0.464531    -0.608298
H     -0.286541     0.070475    -1.629288
H     -0.979246    -1.411983    -1.009487
H      0.427265    -1.196096     1.061466
H      1.331371    -1.423422    -0.419013
H      2.438067     0.278941     0.980027
H      0.981970     1.266917     1.021216
H      1.846131     1.036710    -0.500646
14
Iteration 4, Energy=-157.3083511324, |grad|=0.001084
C     -1.643943     0.347130     0.022885
C     -0.560394    -0.448388    -0.703615
C      0.704513    -0.706946     0.120938
C      1.534874     0.539703     0.423117
H     -1.304587     1.347658     0.298823
H     -1.956943    -0.162559     0.938992
H     -2.528327     0.464402    -0.608232
H     -0.286447     0.070143    -1.629499
H     -0.979278    -1.412004    -1.009293
H      0.427260    -1.196608     1.061286
H      1.331559    -1.423109    -0.419258
H      2.438021     0.278878     0.980018
H      0.982146     1.266991     1.021668
H      1.845544     1.036672    -0.500508
14
Iteration 5, Energy=-157.3083518359, |grad|=0.001220
C     -1.643755     0.347339     0.022724
C     -0.560419    -0.448471    -0.703676
C      0.704433    -0.707000     0.120963
C      1.534600     0.539758     0.423477
H     -1.304442     1.348026     0.298127
H     -1.956334    -0.161973     0.939224
H     -2.528461     0.464222    -0.608094
H     -0.286348     0.069587    -1.629768
H     -0.979381    -1.412114    -1.009007
H      0.427257    -1.197403     1.061001
H      1.331827    -1.422549    -0.419622
H      2.437996     0.278790     0.979854
H      0.982271     1.267075     1.022379
H      1.844752     1.036675    -0.500259
14
Iteration 6, Energy=-157.3083524026, |grad|=0.003863
C     -1.643102     0.349087     0.022016
C     -0.560546    -0.449575    -0.703584
C      0.704240    -0.707249     0.121448
C      1.532611     0.539263     0.425700
H     -1.303558     1.350039     0.293456
H     -1.952428    -0.158193     0.940523
H     -2.528950     0.463109    -0.607245
H     -0.285897     0.066645    -1.631468
H     -0.980219    -1.413068    -1.007312
H      0.427402    -1.201738     1.058995
H      1.333269    -1.419222    -0.421733
H      2.438316     0.278306     0.978590
H      0.982135     1.266910     1.026747
H      1.840722     1.037648    -0.498809
14
Iteration 7, Energy=-157.3083550754, |grad|=0.001153
C     -1.642826     0.348772     0.021708
C     -0.560532    -0.449184    -0.703754
C      0.703949    -0.707433     0.121241
C      1.532550     0.539809     0.425939
H     -1.303315     1.350662     0.292707
H     -1.951773    -0.157556     0.940897
H     -2.529102     0.463028    -0.607265
H     -0.285998     0.065989    -1.631350
H     -0.980421    -1.413360    -1.007053
H      0.427399    -1.202520     1.058998
H      1.333515    -1.418710    -0.422051
H      2.438460     0.278227     0.978070
H      0.981841     1.266532     1.027306
H      1.840250     1.037707    -0.498069
14
Iteration 8, Energy=-157.3083556971, |grad|=0.000907
C     -1.642929     0.348653     0.021692
C     -0.560545    -0.449231    -0.703763
C      0.703954    -0.707372     0.121171
C      1.532668     0.539779     0.425873
H     -1.303291     1.350671     0.292698
H     -1.951844    -0.157578     0.940932
H     -2.529001     0.463074    -0.607330
H     -0.286140     0.066136    -1.631143
H     -0.980455    -1.413380    -1.007081
H      0.427447    -1.202262     1.059143
H      1.333446    -1.418928    -0.421984
H      2.438568     0.278276     0.977905
H      0.981462     1.266148     1.027149
H      1.840655     1.037977    -0.497937
14
Iteration 9, Energy=-157.3083575650, |grad|=0.001418
C     -1.642805     0.348864     0.021457
C     -0.560617    -0.449569    -0.703709
C      0.704051    -0.707516     0.120919
C      1.532357     0.539677     0.426176
H     -1.302833     1.351459     0.290828
H     -1.950831    -0.156115     0.941542
H     -2.528944     0.462731    -0.607234
H     -0.286507     0.065611    -1.631053
H     -0.980948    -1.413957    -1.006523
H      0.427815    -1.202690     1.058814
H      1.333693    -1.418748    -0.422529
H      2.438983     0.278253     0.977239
H      0.980202     1.264458     1.028295
H      1.840382     1.039505    -0.496899
14
Iteration 10, Energy=-157.3083611880, |grad|=0.002882
C     -1.641938     0.350035     0.020538
C     -0.560817    -0.450845    -0.703749
C      0.704246    -0.707948     0.119954
C      1.531413     0.539363     0.427701
H     -1.301355     1.354221     0.284727
H     -1.947320    -0.151098     0.943570
H     -2.529172     0.461274    -0.606497
H     -0.287109     0.063128    -1.631704
H     -0.982276    -1.415392    -1.004406
H      0.428891    -1.205304     1.057304
H      1.334931    -1.417559    -0.424783
H      2.439312     0.278074     0.975853
H      0.977887     1.260628     1.032941
H      1.837301     1.043385    -0.494125
14
Iteration 1, Energy=-157.3083612621, |grad|=0.003078
C     -1.641843     0.350158     0.020417
C     -0.560850    -0.450885    -0.703806
C      0.704213    -0.707978     0.119913
C      1.531230     0.539418     0.427929
H     -1.301202     1.354593     0.283977
H     -1.946845    -0.150468     0.943841
H     -2.529193     0.461124    -0.606413
H     -0.287127     0.062759    -1.631853
H     -0.982409    -1.415552    -1.004184
H      0.428932    -1.205702     1.057128
H      1.335078    -1.417206    -0.425089
H      2.439386     0.278022     0.975643
H      0.977830     1.260356     1.033442
H      1.836943     1.043714    -0.493784
14
Iteration 2, Energy=-157.3083612281, |grad|=0.003305
C     -1.641803     0.350231     0.020349
C     -0.560861    -0.450967    -0.703805
C      0.704210    -0.708010     0.119873
C      1.531148     0.539405     0.428049
H     -1.301101     1.354834     0.283481
H     -1.946597    -0.150044     0.944005
H     -2.529198     0.461024    -0.606374
H     -0.287154     0.062588    -1.631866
H     -0.982508    -1.415661    -1.004044
H      0.429006    -1.205935     1.057027
H      1.335174    -1.417073    -0.425284
H      2.439434     0.278021     0.975507
H      0.977668     1.260110     1.033755
H      1.836726     1.043949    -0.493593
14
Iteration -1, Energy=-157.3083611880, |grad|=0.002882
C     -1.641938     0.350035     0.020538
C     -0.560817    -0.450845    -0.703749
C      0.704246    -0.707948     0.119954
C      1.531413     0.539363     0.427701
H     -1.301355     1.354221     0.284727
H     -1.947320    -0.151098     0.943570
H     -2.529172     0.461274    -0.606497
H     -0.287109     0.063128    -1.631704
H     -0.982276    -1.415392    -1.004406
H      0.428891    -1.205304     1.057304
H      1.334931    -1.417559    -0.424783
H      2.439312     0.278074     0.975853
H      0.977887     1.260628     1.032941
H      1.837301     1.043385    -0.494125
14
Iteration 1, Energy=-157.3083626021, |grad|=0.001179
C     -1.641608     0.350284     0.020669
C     -0.560981    -0.450854    -0.703731
C      0.704467    -0.708177     0.119984
C      1.531277     0.539493     0.427503
H     -1.301420     1.354036     0.284654
H     -1.947398    -0.151061     0.943618
H     -2.529318     0.461223    -0.606573
H     -0.287111     0.063136    -1.631838
H     -0.982212    -1.415332    -1.004390
H      0.428966    -1.205194     1.057215
H      1.334857    -1.417625    -0.424775
H      2.439327     0.278030     0.976035
H      0.977979     1.260596     1.033005
H      1.837172     1.043406    -0.494055
14
Iteration 2, Energy=-157.3083631398, |grad|=0.001074
C     -1.641491     0.350381     0.020731
C     -0.560987    -0.450818    -0.703713
C      0.704612    -0.708309     0.119921
C      1.531235     0.539501     0.427415
H     -1.301417     1.353987     0.284602
H     -1.947484    -0.150951     0.943658
H     -2.529363     0.461141    -0.606561
H     -0.287140     0.063108    -1.631989
H     -0.982171    -1.415280    -1.004373
H      0.429087    -1.205067     1.057160
H      1.334819    -1.417817    -0.424816
H      2.439223     0.278021     0.976230
H      0.978085     1.260564     1.033112
H      1.836989     1.043501    -0.494053
14
Iteration 3, Energy=-157.3083641341, |grad|=0.001203
C     -1.641335     0.350503     0.020818
C     -0.560889    -0.450735    -0.703746
C      0.704913    -0.708515     0.119669
C      1.531196     0.539463     0.427288
H     -1.301351     1.354004     0.284474
H     -1.947715    -0.150585     0.943782
H     -2.529392     0.460891    -0.606462
H     -0.287257     0.062985    -1.632361
H     -0.982075    -1.415128    -1.004312
H      0.429456    -1.204734     1.057058
H      1.334758    -1.418458    -0.424984
H      2.438868     0.278021     0.976757
H      0.978368     1.260420     1.033425
H      1.836452     1.043830    -0.494084
14
Iteration 4, Energy=-157.3083648396, |grad|=0.000744
C     -1.641220     0.350519     0.020782
C     -0.560759    -0.450701    -0.703862
C      0.705105    -0.708573     0.119304
C      1.531276     0.539438     0.427262
H     -1.301239     1.354242     0.284298
H     -1.947867    -0.150098     0.943979
H     -2.529323     0.460602    -0.606333
H     -0.287452     0.062785    -1.632662
H     -0.982034    -1.415067    -1.004251
H      0.429885    -1.204458     1.057008
H      1.334678    -1.419137    -0.425165
H      2.438543     0.278034     0.977215
H      0.978497     1.260069     1.033790
H      1.835905     1.044307    -0.494041
14
Iteration 5, Energy=-157.3083651043, |grad|=0.001043
C     -1.641283     0.350656     0.020892
C     -0.560611    -0.450831    -0.703911
C      0.705250    -0.708571     0.119181
C      1.531237     0.539208     0.427322
H     -1.301142     1.354477     0.283964
H     -1.947759    -0.149508     0.944074
H     -2.529161     0.460342    -0.606238
H     -0.287674     0.062591    -1.632951
H     -0.982085    -1.415152    -1.004199
H      0.430289    -1.204240     1.056844
H      1.334595    -1.419612    -0.425347
H      2.438441     0.278050     0.977438
H      0.978328     1.259584     1.034209
H      1.835574     1.044969    -0.493954
14
Iteration 6, Energy=-157.3083653962, |grad|=0.000699
C     -1.641207     0.350630     0.020766
C     -0.560627    -0.450820    -0.703914
C      0.705269    -0.708593     0.119001
C      1.531302     0.539269     0.427351
H     -1.301094     1.354654     0.283819
H     -1.947684    -0.149310     0.944206
H     -2.529114     0.460268    -0.606223
H     -0.287772     0.062482    -1.632976
H     -0.982130    -1.415233    -1.004169
H      0.430395    -1.204248     1.056872
H      1.334555    -1.419696    -0.425383
H      2.438440     0.278056     0.977421
H      0.978189     1.259315     1.034354
H      1.835473     1.045189    -0.493803
14
Iteration 7, Energy=-157.3083657941, |grad|=0.000847
C     -1.641057     0.350683     0.020633
C     -0.560686    -0.450914    -0.703946
C      0.705289    -0.708605     0.118804
C      1.531350     0.539317     0.427414
H     -1.301015     1.354959     0.283426
H     -1.947416    -0.148874     0.944434
H     -2.529037     0.460140    -0.606240
H     -0.287973     0.062256    -1.633009
H     -0.982238    -1.415401    -1.004077
H      0.430585    -1.204298     1.056864
H      1.334508    -1.419785    -0.425490
H      2.438539     0.278066     0.977281
H      0.977794     1.258724     1.034680
H      1.835353     1.045697    -0.493451
14
Iteration 8, Energy=-157.3083664154, |grad|=0.001115
C     -1.640780     0.350908     0.020462
C     -0.560784    -0.451149    -0.703957
C      0.705424    -0.708721     0.118480
C      1.531285     0.539324     0.427548
H     -1.300836     1.355525     0.282455
H     -1.946787    -0.147872     0.944886
H     -2.528906     0.459857    -0.606271
H     -0.288383     0.061763    -1.633176
H     -0.982474    -1.415730    -1.003818
H      0.430994    -1.204382     1.056752
H      1.334451    -1.419965    -0.425780
H      2.438760     0.278078     0.976983
H      0.976967     1.257474     1.035470
H      1.835065     1.046853    -0.492709
14
Iteration 9, Energy=-157.3083672297, |grad|=0.001317
C     -1.640309     0.351336     0.020282
C     -0.560877    -0.451502    -0.703990
C      0.705616    -0.708974     0.118102
C      1.531142     0.539224     0.427743
H     -1.300466     1.356305     0.280642
H     -1.945735    -0.146247     0.945599
H     -2.528898     0.459433    -0.606277
H     -0.288889     0.060901    -1.633523
H     -0.982853    -1.416088    -1.003156
H      0.431532    -1.204652     1.056438
H      1.334649    -1.420198    -0.426465
H      2.438912     0.278109     0.976449
H      0.975822     1.255742     1.036970
H      1.834351     1.048575    -0.491489
14
Iteration 10, Energy=-157.3083681136, |grad|=0.001458
C     -1.639723     0.352172     0.019877
C     -0.560993    -0.452141    -0.703927
C      0.706284    -0.709598     0.117281
C      1.530159     0.539138     0.428438
H     -1.299688     1.357755     0.277133
H     -1.943696    -0.143193     0.946852
H     -2.528826     0.458633    -0.606107
H     -0.289678     0.059285    -1.634291
H     -0.983611    -1.416775    -1.001811
H      0.432428    -1.205313     1.055759
H      1.335019    -1.420358    -0.427719
H      2.439375     0.278063     0.975567
H      0.974038     1.252544     1.039735
H      1.832908     1.051749    -0.489463
14
Iteration 1, Energy=-157.3083673875, |grad|=0.001914
C     -1.639622     0.352189     0.019831
C     -0.560993    -0.452150    -0.703935
C      0.706392    -0.709706     0.117101
C      1.530072     0.539089     0.428443
H     -1.299682     1.357776     0.277108
H     -1.943682    -0.143171     0.946890
H     -2.528809     0.458625    -0.606106
H     -0.289880     0.059273    -1.634371
H     -0.983617    -1.416786    -1.001718
H      0.432648    -1.205322     1.055748
H      1.335043    -1.420426    -0.427729
H      2.439323     0.278063     0.975517
H      0.973617     1.251932     1.039756
H      1.832896     1.052257    -0.489205
14
Iteration 2, Energy=-157.3083663122, |grad|=0.002255
C     -1.639538     0.352163     0.019810
C     -0.561005    -0.452137    -0.703939
C      0.706482    -0.709765     0.116954
C      1.530071     0.539074     0.428249
H     -1.299718     1.357780     0.277253
H     -1.943822    -0.143180     0.946951
H     -2.528766     0.458591    -0.606173
H     -0.290045     0.059303    -1.634433
H     -0.983580    -1.416786    -1.001676
H      0.432776    -1.204980     1.055835
H      1.334965    -1.420639    -0.427670
H      2.439365     0.278099     0.975441
H      0.973317     1.251437     1.039717
H      1.833019     1.052726    -0.488973
14
Iteration -1, Energy=-157.3083681136, |grad|=0.001458
C     -1.639723     0.352172     0.019877
C     -0.560993    -0.452141    -0.703927
C      0.706284    -0.709598     0.117281
C      1.530159     0.539138     0.428438
H     -1.299688     1.357755     0.277133
H     -1.943696    -0.143193     0.946852
H     -2.528826     0.458633    -0.606107
H     -0.289678     0.059285    -1.634291
H     -0.983611    -1.416775    -1.001811
H      0.432428    -1.205313     1.055759
H      1.335019    -1.420358    -0.427719
H      2.439375     0.278063     0.975567
H      0.974038     1.252544     1.039735
H      1.832908     1.051749    -0.489463
14
Iteration 1, Energy=-157.3083686170, |grad|=0.001097
C     -1.639703     0.352243     0.020000
C     -0.560926    -0.452183    -0.703961
C      0.706126    -0.709526     0.117494
C      1.530350     0.538947     0.428368
H     -1.299662     1.357717     0.277046
H     -1.943669    -0.143145     0.946769
H     -2.528894     0.458612    -0.606056
H     -0.289590     0.059257    -1.634359
H     -0.983637    -1.416793    -1.001752
H      0.432429    -1.205397     1.055569
H      1.335148    -1.420294    -0.427809
H      2.439241     0.278070     0.975585
H      0.974084     1.252796     1.039923
H      1.832699     1.051660    -0.489495
14
Iteration 2, Energy=-157.3083689653, |grad|=0.001002
C     -1.639697     0.352265     0.019985
C     -0.560913    -0.452172    -0.703957
C      0.706125    -0.709535     0.117498
C      1.530301     0.538947     0.428427
H     -1.299621     1.357727     0.276979
H     -1.943651    -0.143120     0.946743
H     -2.528933     0.458592    -0.605982
H     -0.289503     0.059220    -1.634409
H     -0.983659    -1.416813    -1.001695
H      0.432398    -1.205519     1.055481
H      1.335204    -1.420171    -0.427835
H      2.439199     0.278042     0.975635
H      0.974228     1.252928     1.040009
H      1.832517     1.051571    -0.489555
14
Iteration 3, Energy=-157.3083703220, |grad|=0.002027
C     -1.639277     0.352474     0.019513
C     -0.560902    -0.452278    -0.704607
C      0.705704    -0.709165     0.117740
C      1.529536     0.539399     0.429311
H     -1.298964     1.358180     0.275967
H     -1.943253    -0.142727     0.946666
H     -2.529662     0.458340    -0.605034
H     -0.288336     0.058317    -1.634728
H     -0.983818    -1.416803    -1.000719
H      0.431839    -1.207798     1.054432
H      1.336340    -1.418348    -0.428525
H      2.438687     0.277594     0.976181
H      0.976425     1.254750     1.041269
H      1.829677     1.050027    -0.490142
14
Iteration 4, Energy=-157.3083709057, |grad|=0.001888
C     -1.639479     0.352581     0.019442
C     -0.560814    -0.452103    -0.703916
C      0.705755    -0.709601     0.117631
C      1.529589     0.539083     0.429609
H     -1.298923     1.358209     0.275757
H     -1.942824    -0.142526     0.946627
H     -2.529622     0.458379    -0.605051
H     -0.288313     0.058206    -1.635044
H     -0.983917    -1.417166    -1.000876
H      0.431740    -1.208139     1.054391
H      1.336267    -1.417681    -0.428455
H      2.438648     0.277629     0.975785
H      0.976244     1.255003     1.041577
H      1.829645     1.050088    -0.490153
14
Iteration 5, Energy=-157.3083714595, |grad|=0.000463
C     -1.639479     0.352578     0.019583
C     -0.560878    -0.452204    -0.704105
C      0.705805    -0.709501     0.117768
C      1.529539     0.539149     0.429365
H     -1.299049     1.358125     0.275927
H     -1.942931    -0.142597     0.946661
H     -2.529519     0.458412    -0.605231
H     -0.288532     0.058325    -1.634873
H     -0.983844    -1.417042    -1.000981
H      0.431859    -1.207740     1.054542
H      1.336136    -1.418122    -0.428417
H      2.438841     0.277666     0.975782
H      0.975937     1.254593     1.041302
H      1.830111     1.050321    -0.490001
14
Iteration 6, Energy=-157.3083715536, |grad|=0.000362
C     -1.639471     0.352598     0.019562
C     -0.560899    -0.452240    -0.704122
C      0.705772    -0.709480     0.117813
C      1.529492     0.539162     0.429403
H     -1.299040     1.358161     0.275864
H     -1.942839    -0.142538     0.946694
H     -2.529519     0.458417    -0.605247
H     -0.288546     0.058259    -1.634865
H     -0.983841    -1.417055    -1.000979
H      0.431849    -1.207846     1.054542
H      1.336168    -1.418038    -0.428459
H      2.438877     0.277661     0.975708
H      0.975912     1.254581     1.041357
H      1.830080     1.050321    -0.489948
14
Iteration 7, Energy=-157.3083719381, |grad|=0.000512
C     -1.639368     0.352787     0.019416
C     -0.561027    -0.452428    -0.704138
C      0.705559    -0.709490     0.118091
C      1.529137     0.539236     0.429754
H     -1.298932     1.358441     0.275254
H     -1.942077    -0.142001     0.946922
H     -2.529574     0.458437    -0.605323
H     -0.288582     0.057711    -1.634901
H     -0.983876    -1.417255    -1.000916
H      0.431768    -1.208760     1.054427
H      1.336417    -1.417208    -0.428769
H      2.439098     0.277600     0.975159
H      0.975798     1.254601     1.041925
H      1.829656     1.050292    -0.489576
14
Iteration 8, Energy=-157.3083720952, |grad|=0.000960
C     -1.639350     0.352886     0.019216
C     -0.561057    -0.452664    -0.704121
C      0.705473    -0.709380     0.118062
C      1.528969     0.539165     0.430035
H     -1.298803     1.358715     0.274730
H     -1.941675    -0.141541     0.947159
H     -2.529526     0.458380    -0.605261
H     -0.288601     0.057411    -1.634983
H     -0.983956    -1.417366    -1.000773
H      0.431832    -1.209233     1.054325
H      1.336583    -1.416923    -0.429011
H      2.439166     0.277589     0.974901
H      0.975662     1.254431     1.042397
H      1.829278     1.050493    -0.489354
14
Iteration 9, Energy=-157.3083723504, |grad|=0.000818
C     -1.639253     0.352977     0.019146
C     -0.561082    -0.452734    -0.704112
C      0.705452    -0.709453     0.118051
C      1.528839     0.539175     0.430207
H     -1.298695     1.358907     0.274258
H     -1.941352    -0.141130     0.947317
H     -2.529549     0.458324    -0.605231
H     -0.288608     0.057149    -1.635059
H     -0.984044    -1.417519    -1.000646
H      0.431903    -1.209590     1.054178
H      1.336690    -1.416652    -0.429187
H      2.439212     0.277565     0.974729
H      0.975570     1.254291     1.042817
H      1.828914     1.050653    -0.489144
14
Iteration 10, Energy=-157.3083743964, |grad|=0.001200
C     -1.638226     0.354071     0.018469
C     -0.561314    -0.453655    -0.704009
C      0.705543    -0.710173     0.117595
C      1.527570     0.539158     0.431814
H     -1.297520     1.360874     0.269201
H     -1.938350    -0.136717     0.949018
H     -2.529713     0.457533    -0.604806
H     -0.288770     0.054647    -1.635954
H     -0.985001    -1.418949    -0.999143
H      0.432919    -1.212706     1.052636
H      1.337722    -1.414652    -0.431055
H      2.439566     0.277365     0.973311
H      0.974454     1.252253     1.047218
H      1.825117     1.052912    -0.486973
14
Iteration 1, Energy=-157.3083749950, |grad|=0.000987
C     -1.638085     0.354261     0.018342
C     -0.561270    -0.453764    -0.704052
C      0.705587    -0.710189     0.117524
C      1.527438     0.539117     0.431939
H     -1.297314     1.361229     0.268505
H     -1.937894    -0.136142     0.949203
H     -2.529728     0.457397    -0.604693
H     -0.288868     0.054217    -1.636172
H     -0.985164    -1.419026    -0.998816
H      0.432969    -1.212822     1.052446
H      1.337843    -1.414692    -0.431336
H      2.439539     0.277334     0.973320
H      0.974283     1.251837     1.047852
H      1.824755     1.053407    -0.486608
14
Iteration 2, Energy=-157.3083752378, |grad|=0.001051
C     -1.637963     0.354387     0.018253
C     -0.561292    -0.453878    -0.704053
C      0.705597    -0.710249     0.117450
C      1.527307     0.539111     0.432103
H     -1.297167     1.361476     0.267911
H     -1.937532    -0.135628     0.949400
H     -2.529736     0.457302    -0.604645
H     -0.288906     0.053906    -1.636297
H     -0.985285    -1.419176    -0.998621
H      0.433072    -1.213107     1.052278
H      1.337954    -1.414549    -0.431552
H      2.439578     0.277314     0.973179
H      0.974132     1.251538     1.048376
H      1.824362     1.053744    -0.486320
14
Iteration -1, Energy=-157.3083749950, |grad|=0.000987
C     -1.638085     0.354261     0.018342
C     -0.561270    -0.453764    -0.704052
C      0.705587    -0.710189     0.117524
C      1.527438     0.539117     0.431939
H     -1.297314     1.361229     0.268505
H     -1.937894    -0.136142     0.949203
H     -2.529728     0.457397    -0.604693
H     -0.288868     0.054217    -1.636172
H     -0.985164    -1.419026    -0.998816
H      0.432969    -1.212822     1.052446
H      1.337843    -1.414692    -0.431336
H      2.439539     0.277334     0.973320
H      0.974283     1.251837     1.047852
H      1.824755     1.053407    -0.486608
14
Iteration 1, Energy=-157.3083752876, |grad|=0.000731
C     -1.638098     0.354313     0.018383
C     -0.561289    -0.453792    -0.704200
C      0.705676    -0.710143     0.117545
C      1.527302     0.539172     0.431917
H     -1.297253     1.361262     0.268473
H     -1.937957    -0.136081     0.949164
H     -2.529743     0.457303    -0.604646
H     -0.288896     0.054194    -1.636152
H     -0.985138    -1.418932    -0.998729
H      0.433012    -1.212758     1.052448
H      1.337891    -1.414882    -0.431406
H      2.439533     0.277314     0.973457
H      0.974365     1.251658     1.047829
H      1.824687     1.053535    -0.486628
14
Iteration 2, Energy=-157.3083755528, |grad|=0.000726
C     -1.638081     0.354363     0.018373
C     -0.561277    -0.453761    -0.704230
C      0.705762    -0.710163     0.117459
C      1.527322     0.539167     0.431857
H     -1.297164     1.361318     0.268424
H     -1.938051    -0.136000     0.949133
H     -2.529777     0.457175    -0.604576
H     -0.288925     0.054186    -1.636190
H     -0.985135    -1.418871    -0.998630
H      0.433075    -1.212659     1.052455
H      1.337929    -1.415104    -0.431459
H      2.439438     0.277318     0.973603
H      0.974400     1.251475     1.047867
H      1.824574     1.053722    -0.486633
14
Iteration 3, Energy=-157.3083760788, |grad|=0.000887
C     -1.637882     0.354608     0.018472
C     -0.561086    -0.453648    -0.704220
C      0.706122    -0.710474     0.117110
C      1.527437     0.539001     0.431551
H     -1.296875     1.361523     0.268121
H     -1.938352    -0.135577     0.949035
H     -2.529957     0.456689    -0.604387
H     -0.289078     0.054166    -1.636440
H     -0.985215    -1.418762    -0.998252
H      0.433439    -1.212133     1.052303
H      1.337912    -1.415887    -0.431571
H      2.439162     0.277335     0.974146
H      0.974305     1.250716     1.048167
H      1.824159     1.054606    -0.486582
14
Iteration 4, Energy=-157.3083762484, |grad|=0.000507
C     -1.637899     0.354601     0.018313
C     -0.561075    -0.453677    -0.704193
C      0.706184    -0.710398     0.116906
C      1.527529     0.538970     0.431582
H     -1.296808     1.361668     0.268029
H     -1.938383    -0.135449     0.949114
H     -2.529880     0.456582    -0.604297
H     -0.289128     0.054139    -1.636499
H     -0.985258    -1.418741    -0.998151
H      0.433535    -1.212053     1.052342
H      1.337915    -1.416128    -0.431619
H      2.439090     0.277362     0.974188
H      0.974199     1.250436     1.048251
H      1.824069     1.054854    -0.486512
14
Iteration 5, Energy=-157.3083763388, |grad|=0.000410
C     -1.637860     0.354590     0.018308
C     -0.561093    -0.453677    -0.704190
C      0.706174    -0.710394     0.116884
C      1.527572     0.538984     0.431591
H     -1.296838     1.361690     0.267975
H     -1.938325    -0.135397     0.949161
H     -2.529848     0.456598    -0.604324
H     -0.289150     0.054109    -1.636504
H     -0.985290    -1.418786    -0.998150
H      0.433565    -1.212051     1.052333
H      1.337889    -1.416131    -0.431620
H      2.439121     0.277371     0.974120
H      0.974093     1.250366     1.048298
H      1.824080     1.054894    -0.486428
14
Iteration 6, Energy=-157.3083766104, |grad|=0.000545
C     -1.637712     0.354628     0.018303
C     -0.561132    -0.453747    -0.704171
C      0.706232    -0.710421     0.116726
C      1.527639     0.538987     0.431650
H     -1.296934     1.361840     0.267627
H     -1.938048    -0.135042     0.949377
H     -2.529687     0.456590    -0.604412
H     -0.289292     0.053951    -1.636600
H     -0.985451    -1.418960    -0.998065
H      0.433776    -1.211958     1.052257
H      1.337756    -1.416266    -0.431661
H      2.439292     0.277410     0.973883
H      0.973560     1.249845     1.048584
H      1.824092     1.055308    -0.486046
14
Iteration 7, Energy=-157.3083768051, |grad|=0.000556
C     -1.637619     0.354701     0.018281
C     -0.561125    -0.453833    -0.704201
C      0.706309    -0.710489     0.116610
C      1.527596     0.538942     0.431678
H     -1.296939     1.362080     0.267207
H     -1.937748    -0.134610     0.949591
H     -2.529562     0.456512    -0.604469
H     -0.289476     0.053725    -1.636705
H     -0.985592    -1.419069    -0.997899
H      0.433998    -1.211865     1.052177
H      1.337709    -1.416480    -0.431805
H      2.439436     0.277450     0.973712
H      0.973075     1.249226     1.048951
H      1.824028     1.055874    -0.485674
14
Iteration 8, Energy=-157.3083769346, |grad|=0.000660
C     -1.637444     0.354897     0.018259
C     -0.561193    -0.453973    -0.704172
C      0.706480    -0.710599     0.116377
C      1.527474     0.538955     0.431790
H     -1.296920     1.362290     0.266707
H     -1.937410    -0.134144     0.949812
H     -2.529506     0.456405    -0.604532
H     -0.289645     0.053467    -1.636857
H     -0.985709    -1.419152    -0.997698
H      0.434174    -1.211867     1.052156
H      1.337681    -1.416626    -0.431969
H      2.439543     0.277486     0.973539
H      0.972680     1.248555     1.049345
H      1.823886     1.056471    -0.485304
14
Iteration 9, Energy=-157.3083770959, |grad|=0.000414
C     -1.637413     0.355010     0.018221
C     -0.561165    -0.454043    -0.704209
C      0.706552    -0.710683     0.116327
C      1.527355     0.538902     0.431811
H     -1.296820     1.362536     0.266291
H     -1.937134    -0.133735     0.949950
H     -2.529468     0.456280    -0.604526
H     -0.289792     0.053214    -1.636960
H     -0.985801    -1.419204    -0.997501
H      0.434314    -1.211887     1.052084
H      1.337754    -1.416771    -0.432182
H      2.439586     0.277511     0.973456
H      0.972425     1.248053     1.049722
H      1.823697     1.056981    -0.485029
14
Iteration 10, Energy=-157.3083772926, |grad|=0.000583
C     -1.637352     0.355182     0.018137
C     -0.561154    -0.454142    -0.704232
C      0.706623    -0.710797     0.116281
C      1.527166     0.538844     0.431887
H     -1.296646     1.362841     0.265735
H     -1.936754    -0.133227     0.950106
H     -2.529486     0.456124    -0.604487
H     -0.289929     0.052857    -1.637097
H     -0.985897    -1.419272    -0.997243
H      0.434420    -1.212065     1.051982
H      1.337909    -1.416791    -0.432476
H      2.439593     0.277528     0.973351
H      0.972250     1.247554     1.050239
H      1.823348     1.057528    -0.484731
14
Iteration 1, Energy=-157.3083774409, |grad|=0.000579
C     -1.637209     0.355293     0.018075
C     -0.561181    -0.454211    -0.704212
C      0.706578    -0.710823     0.116149
C      1.527101     0.538891     0.431989
H     -1.296552     1.363015     0.265375
H     -1.936574    -0.132876     0.950183
H     -2.529591     0.456008    -0.604454
H     -0.289971     0.052675    -1.637200
H     -0.985968    -1.419330    -0.997085
H      0.434570    -1.212185     1.051892
H      1.337952    -1.416738    -0.432612
H      2.439497     0.277529     0.973301
H      0.972060     1.247257     1.050568
H      1.823099     1.057825    -0.484580
14
Iteration 2, Energy=-157.3083775507, |grad|=0.000538
C     -1.637158     0.355370     0.018032
C     -0.561176    -0.454278    -0.704222
C      0.706655    -0.710879     0.116106
C      1.527053     0.538850     0.432055
H     -1.296492     1.363201     0.264979
H     -1.936355    -0.132502     0.950350
H     -2.529524     0.455940    -0.604451
H     -0.290045     0.052479    -1.637273
H     -0.986056    -1.419426    -0.996963
H      0.434666    -1.212267     1.051802
H      1.337976    -1.416796    -0.432753
H      2.439574     0.277541     0.973220
H      0.971905     1.246965     1.050903
H      1.822883     1.058109    -0.484345
14
Iteration -1, Energy=-157.3083775507, |grad|=0.000538
C     -1.637158     0.355370     0.018032
C     -0.561176    -0.454278    -0.704222
C      0.706655    -0.710879     0.116106
C      1.527053     0.538850     0.432055
H     -1.296492     1.363201     0.264979
H     -1.936355    -0.132502     0.950350
H     -2.529524     0.455940    -0.604451
H     -0.290045     0.052479    -1.637273
H     -0.986056    -1.419426    -0.996963
H      0.434666    -1.212267     1.051802
H      1.337976    -1.416796    -0.432753
H      2.439574     0.277541     0.973220
H      0.971905     1.246965     1.050903
H      1.822883     1.058109    -0.484345
14
Iteration 1, Energy=-157.3083776756, |grad|=0.000656
C     -1.637154     0.355393     0.017913
C     -0.561192    -0.454218    -0.704173
C      0.706713    -0.710900     0.116031
C      1.527094     0.538827     0.432063
H     -1.296437     1.363214     0.264907
H     -1.936342    -0.132472     0.950365
H     -2.529519     0.455915    -0.604350
H     -0.289986     0.052444    -1.637309
H     -0.986097    -1.419511    -0.996942
H      0.434628    -1.212412     1.051758
H      1.337982    -1.416618    -0.432726
H      2.439530     0.277516     0.973236
H      0.971987     1.247098     1.051001
H      1.822699     1.058032    -0.484334
14
Iteration 2, Energy=-157.3083778180, |grad|=0.000587
C     -1.637128     0.355416     0.017902
C     -0.561197    -0.454234    -0.704199
C      0.706691    -0.710874     0.116064
C      1.527066     0.538831     0.432120
H     -1.296385     1.363225     0.264826
H     -1.936314    -0.132419     0.950344
H     -2.529552     0.455895    -0.604285
H     -0.289933     0.052400    -1.637333
H     -0.986118    -1.419547    -0.996905
H      0.434607    -1.212544     1.051677
H      1.338031    -1.416487    -0.432749
H      2.439514     0.277484     0.973256
H      0.972095     1.247194     1.051073
H      1.822530     1.057970    -0.484350
14
Iteration 3, Energy=-157.3083780103, |grad|=0.001614
C     -1.636965     0.355461     0.017525
C     -0.561164    -0.454522    -0.704258
C      0.706220    -0.710790     0.116166
C      1.526482     0.539076     0.432934
H     -1.295779     1.363590     0.263988
H     -1.935875    -0.131889     0.950395
H     -2.529928     0.455765    -0.603770
H     -0.289496     0.051861    -1.637612
H     -0.986208    -1.419725    -0.996500
H      0.434341    -1.213986     1.051081
H      1.338665    -1.415183    -0.433130
H      2.439482     0.277172     0.973307
H      0.973132     1.248032     1.051862
H      1.820999     1.057449    -0.484546
14
Iteration 4, Energy=-157.3083784044, |grad|=0.000675
C     -1.636887     0.355641     0.017724
C     -0.561231    -0.454447    -0.704438
C      0.706328    -0.710803     0.116397
C      1.526602     0.538906     0.432736
H     -1.295799     1.363468     0.263850
H     -1.935771    -0.131800     0.950373
H     -2.529993     0.455765    -0.603837
H     -0.289516     0.051745    -1.637560
H     -0.986214    -1.419790    -0.996496
H      0.434329    -1.214073     1.051008
H      1.338705    -1.415082    -0.433192
H      2.439411     0.277185     0.973214
H      0.973027     1.248175     1.052081
H      1.820913     1.057422    -0.484418
14
Iteration 5, Energy=-157.3083784926, |grad|=0.000271
C     -1.636958     0.355601     0.017723
C     -0.561228    -0.454432    -0.704350
C      0.706385    -0.710824     0.116324
C      1.526608     0.538925     0.432710
H     -1.295877     1.363457     0.263967
H     -1.935803    -0.131864     0.950394
H     -2.529910     0.455793    -0.603913
H     -0.289588     0.051823    -1.637550
H     -0.986196    -1.419757    -0.996561
H      0.434366    -1.213874     1.051129
H      1.338617    -1.415281    -0.433149
H      2.439437     0.277233     0.973175
H      0.972884     1.247979     1.051943
H      1.821171     1.057528    -0.484401
14
Iteration 6, Energy=-157.3083785365, |grad|=0.000226
C     -1.636976     0.355610     0.017710
C     -0.561237    -0.454443    -0.704315
C      0.706392    -0.710831     0.116328
C      1.526571     0.538939     0.432740
H     -1.295876     1.363478     0.263913
H     -1.935735    -0.131811     0.950426
H     -2.529892     0.455802    -0.603932
H     -0.289609     0.051787    -1.637566
H     -0.986199    -1.419776    -0.996565
H      0.434371    -1.213907     1.051138
H      1.338629    -1.415265    -0.433179
H      2.439441     0.277243     0.973110
H      0.972847     1.247921     1.051988
H      1.821177     1.057560    -0.484355
