14
Iteration 0, Energy=-157.2970037923, |grad|=0.062644
C     -1.585722     0.354491     0.001070
C     -0.554038    -0.561960    -0.690772
C      0.717078    -0.682337     0.132543
C      1.467993     0.635098     0.362126
H     -1.090831     0.876951     0.829270
H     -2.398802    -0.230161     0.442256
H     -2.058865     1.038666    -0.714764
H     -0.365680    -0.219803    -1.716494
H     -0.982757    -1.555171    -0.722691
H      0.420875    -1.054370     1.116846
H      1.390235    -1.420570    -0.323038
H      2.475742     0.374478     0.662456
H      1.001206     1.216303     1.178119
H      1.563565     1.228385    -0.556927
14
Iteration 1, Energy=-157.2982148931, |grad|=0.049365
C     -1.589261     0.352913     0.001795
C     -0.560598    -0.562224    -0.687206
C      0.717995    -0.680134     0.132911
C      1.471499     0.633371     0.362437
H     -1.098103     0.881863     0.823417
H     -2.396480    -0.229790     0.441785
H     -2.054869     1.040397    -0.708742
H     -0.363481    -0.221862    -1.713669
H     -0.983996    -1.559219    -0.730277
H      0.423696    -1.058527     1.116003
H      1.388417    -1.418853    -0.321779
H      2.479390     0.377707     0.666540
H      1.005773     1.216011     1.169340
H      1.560018     1.228345    -0.552556
14
Iteration 2, Energy=-157.3006954473, |grad|=0.038668
C     -1.595609     0.347049     0.001113
C     -0.571934    -0.567399    -0.677966
C      0.708897    -0.676587     0.138667
C      1.489597     0.616733     0.358216
H     -1.133563     0.912766     0.800826
H     -2.401656    -0.236896     0.448311
H     -2.042421     1.056860    -0.686429
H     -0.355742    -0.232438    -1.691713
H     -0.990897    -1.577981    -0.769909
H      0.441955    -1.080666     1.112719
H      1.380237    -1.412047    -0.319943
H      2.502869     0.394915     0.688720
H      1.023626     1.223911     1.135696
H      1.544642     1.231780    -0.538309
14
Iteration 3, Energy=-157.3010684763, |grad|=0.026491
C     -1.602052     0.342695     0.001226
C     -0.574413    -0.573344    -0.673584
C      0.715469    -0.682549     0.136802
C      1.488970     0.616780     0.361120
H     -1.138767     0.921843     0.800761
H     -2.403517    -0.237071     0.449665
H     -2.043467     1.061756    -0.686227
H     -0.352669    -0.231761    -1.690502
H     -0.990859    -1.577160    -0.778154
H      0.445456    -1.087435     1.116933
H      1.376635    -1.410974    -0.320921
H      2.508131     0.397888     0.692201
H      1.027105     1.227249     1.130856
H      1.543976     1.232082    -0.540175
14
Iteration 4, Energy=-157.3012785038, |grad|=0.021128
C     -1.603460     0.343012     0.001851
C     -0.573185    -0.573737    -0.672767
C      0.716868    -0.684706     0.139433
C      1.489178     0.616584     0.361011
H     -1.141477     0.925301     0.801027
H     -2.406812    -0.237636     0.451222
H     -2.045527     1.063104    -0.687767
H     -0.351175    -0.230762    -1.689332
H     -0.991237    -1.577324    -0.781867
H      0.448048    -1.091272     1.119314
H      1.377136    -1.413546    -0.323966
H      2.509335     0.399456     0.692860
H      1.027368     1.230358     1.131243
H      1.544940     1.231166    -0.542260
14
Iteration 5, Energy=-157.3018378811, |grad|=0.021818
C     -1.612735     0.348214     0.002869
C     -0.568137    -0.571539    -0.665718
C      0.722647    -0.697395     0.147980
C      1.491896     0.618325     0.363251
H     -1.158807     0.941799     0.800816
H     -2.422618    -0.237196     0.457994
H     -2.056201     1.062707    -0.693341
H     -0.341068    -0.223571    -1.679358
H     -0.992644    -1.576701    -0.801450
H      0.465130    -1.114011     1.132879
H      1.378897    -1.425770    -0.338733
H      2.512711     0.409460     0.694935
H      1.030133     1.244782     1.129907
H      1.550795     1.220896    -0.552031
14
Iteration 6, Energy=-157.3019846654, |grad|=0.038015
C     -1.618323     0.345219     0.008941
C     -0.571458    -0.572153    -0.661238
C      0.727164    -0.700845     0.159783
C      1.490720     0.613090     0.360662
H     -1.173461     0.952048     0.799730
H     -2.428917    -0.230931     0.458992
H     -2.067229     1.058954    -0.701047
H     -0.330921    -0.214219    -1.668641
H     -0.991300    -1.568310    -0.812383
H      0.481989    -1.130045     1.136163
H      1.379220    -1.431938    -0.347795
H      2.515598     0.417038     0.696503
H      1.031060     1.253816     1.127872
H      1.555858     1.208276    -0.557543
14
Iteration 7, Energy=-157.3022324696, |grad|=0.020118
C     -1.619207     0.347495     0.006705
C     -0.570206    -0.569681    -0.659017
C      0.726362    -0.702242     0.157435
C      1.491758     0.613840     0.362335
H     -1.175052     0.952199     0.799618
H     -2.429641    -0.230241     0.459174
H     -2.067861     1.055020    -0.700571
H     -0.329412    -0.211990    -1.666307
H     -0.991623    -1.567982    -0.812535
H      0.484432    -1.131730     1.136410
H      1.378307    -1.430554    -0.347221
H      2.514549     0.417661     0.696177
H      1.031324     1.252924     1.125839
H      1.556271     1.205280    -0.558042
14
Iteration 8, Energy=-157.3025233821, |grad|=0.013499
C     -1.622724     0.350262     0.004985
C     -0.569107    -0.564306    -0.652524
C      0.726356    -0.705016     0.156832
C      1.492711     0.612137     0.364360
H     -1.184291     0.956134     0.798950
H     -2.432818    -0.225774     0.459408
H     -2.074408     1.043549    -0.703888
H     -0.321498    -0.201660    -1.655736
H     -0.991629    -1.562465    -0.815505
H      0.496954    -1.141405     1.137200
H      1.375931    -1.428331    -0.348823
H      2.513773     0.421189     0.696389
H      1.031624     1.253339     1.119733
H      1.559126     1.192349    -0.561379
14
Iteration 9, Energy=-157.3027080277, |grad|=0.015332
C     -1.626670     0.351239     0.005514
C     -0.568204    -0.559773    -0.645985
C      0.727545    -0.707237     0.159569
C      1.493772     0.608680     0.364779
H     -1.195248     0.962885     0.798309
H     -2.436973    -0.222123     0.460306
H     -2.083243     1.032470    -0.710442
H     -0.311921    -0.188280    -1.643298
H     -0.991679    -1.555397    -0.819129
H      0.511147    -1.152976     1.138308
H      1.373729    -1.426028    -0.352448
H      2.514737     0.424127     0.698096
H      1.030835     1.254692     1.112790
H      1.562173     1.177721    -0.566371
14
Iteration 10, Energy=-157.3029869947, |grad|=0.016995
C     -1.635692     0.354318     0.007131
C     -0.566475    -0.552936    -0.635778
C      0.731558    -0.708681     0.167431
C      1.499600     0.601463     0.363476
H     -1.211709     0.979970     0.795311
H     -2.441529    -0.227095     0.465273
H     -2.095743     1.012990    -0.723996
H     -0.296664    -0.159107    -1.621924
H     -0.991983    -1.543772    -0.820957
H      0.527359    -1.167980     1.141831
H      1.372315    -1.418265    -0.362622
H      2.519860     0.419455     0.706887
H      1.024251     1.254093     1.096667
H      1.564852     1.155546    -0.578730
14
Iteration 11, Energy=-157.3030589613, |grad|=0.012911
C     -1.637151     0.351740     0.010701
C     -0.564783    -0.547629    -0.632076
C      0.731774    -0.710836     0.168348
C      1.502094     0.600197     0.362473
H     -1.217703     0.986415     0.792931
H     -2.441231    -0.229240     0.467139
H     -2.101113     1.007863    -0.730067
H     -0.292481    -0.149495    -1.614442
H     -0.991924    -1.540423    -0.821517
H      0.531462    -1.171714     1.143498
H      1.372008    -1.415568    -0.366167
H      2.520651     0.416868     0.710219
H      1.021815     1.254009     1.091028
H      1.566584     1.147815    -0.582069
14
Iteration 12, Energy=-157.3031115506, |grad|=0.007758
C     -1.638235     0.351489     0.011680
C     -0.564760    -0.547021    -0.630827
C      0.732450    -0.710272     0.170120
C      1.503280     0.598145     0.361292
H     -1.220372     0.991008     0.791085
H     -2.439838    -0.233036     0.469189
H     -2.102939     1.004446    -0.732333
H     -0.291149    -0.143528    -1.611027
H     -0.991080    -1.537401    -0.820893
H      0.531321    -1.171756     1.144024
H      1.372519    -1.414091    -0.368890
H      2.521469     0.413471     0.713197
H      1.019630     1.253729     1.087577
H      1.567703     1.144818    -0.584193
14
Iteration 13, Energy=-157.3031616915, |grad|=0.008500
C     -1.638927     0.350536     0.012703
C     -0.564291    -0.545831    -0.630220
C      0.733096    -0.710191     0.171024
C      1.503520     0.596238     0.360490
H     -1.223296     0.996378     0.788353
H     -2.436644    -0.237483     0.472201
H     -2.104932     1.001157    -0.733063
H     -0.291389    -0.138888    -1.608486
H     -0.989568    -1.534525    -0.821299
H      0.529612    -1.170198     1.144459
H      1.372957    -1.413988    -0.371465
H      2.520994     0.409859     0.716258
H      1.018127     1.254310     1.084565
H      1.570741     1.142627    -0.585520
14
Iteration 14, Energy=-157.3032403600, |grad|=0.012270
C     -1.639456     0.349269     0.014644
C     -0.563250    -0.543340    -0.628551
C      0.733690    -0.710653     0.171065
C      1.504260     0.593683     0.359560
H     -1.229537     1.006433     0.782923
H     -2.430117    -0.245040     0.478797
H     -2.110361     0.993960    -0.733494
H     -0.291890    -0.130645    -1.605042
H     -0.986507    -1.529378    -0.823912
H      0.527011    -1.167598     1.145027
H      1.372752    -1.414954    -0.375010
H      2.518492     0.404298     0.721648
H      1.016310     1.256286     1.079369
H      1.578604     1.137679    -0.587023
14
Iteration 15, Energy=-157.3033580491, |grad|=0.018914
C     -1.642627     0.346818     0.017520
C     -0.560319    -0.535557    -0.629020
C      0.734488    -0.710913     0.171281
C      1.504624     0.589721     0.359296
H     -1.240568     1.026124     0.773892
H     -2.416362    -0.257661     0.493070
H     -2.123824     0.977092    -0.733503
H     -0.292547    -0.115364    -1.598579
H     -0.981780    -1.521518    -0.831221
H      0.523394    -1.163440     1.144697
H      1.370464    -1.417619    -0.379168
H      2.514451     0.394645     0.733091
H      1.014077     1.260076     1.068846
H      1.596530     1.127596    -0.590202
14
Iteration 16, Energy=-157.3035581922, |grad|=0.018146
C     -1.644217     0.345144     0.022876
C     -0.558295    -0.526573    -0.627138
C      0.734016    -0.711062     0.168289
C      1.509062     0.584948     0.358958
H     -1.256852     1.052671     0.759762
H     -2.396898    -0.274821     0.516053
H     -2.148021     0.950985    -0.733866
H     -0.291850    -0.092195    -1.593512
H     -0.974927    -1.509444    -0.844467
H      0.518996    -1.159073     1.144306
H      1.365369    -1.421989    -0.382142
H      2.507368     0.382643     0.750201
H      1.011331     1.266925     1.054429
H      1.624918     1.111840    -0.593747
14
Iteration 17, Energy=-157.3039760648, |grad|=0.021107
C     -1.650919     0.342560     0.031750
C     -0.554745    -0.507714    -0.629795
C      0.730824    -0.710457     0.164328
C      1.518761     0.579648     0.357945
H     -1.283032     1.097443     0.733790
H     -2.359334    -0.301244     0.561992
H     -2.199356     0.897951    -0.732461
H     -0.289476    -0.051098    -1.587106
H     -0.964913    -1.488685    -0.872929
H      0.511667    -1.152554     1.141012
H      1.353715    -1.430993    -0.382537
H      2.497380     0.362977     0.785064
H      1.008652     1.279356     1.027281
H      1.680775     1.082811    -0.598335
14
Iteration 18, Energy=-157.3044759140, |grad|=0.034864
C     -1.660080     0.336284     0.043109
C     -0.553379    -0.481206    -0.636879
C      0.728418    -0.704828     0.156772
C      1.533287     0.568769     0.360354
H     -1.314647     1.151734     0.695951
H     -2.306446    -0.331942     0.626679
H     -2.273505     0.824300    -0.727769
H     -0.285994     0.002333    -1.581910
H     -0.953750    -1.460282    -0.913766
H      0.498799    -1.144118     1.137498
H      1.337060    -1.443298    -0.379504
H      2.484634     0.338713     0.834251
H      1.007423     1.296489     0.989962
H      1.758180     1.047054    -0.604748
14
Iteration 19, Energy=-157.3051461621, |grad|=0.052024
C     -1.676432     0.328546     0.057417
C     -0.554351    -0.443487    -0.661322
C      0.716295    -0.694870     0.145021
C      1.562164     0.563080     0.358711
H     -1.351374     1.214600     0.630474
H     -2.214996    -0.366303     0.733590
H     -2.395119     0.705239    -0.703463
H     -0.285920     0.072450    -1.592088
H     -0.940623    -1.418818    -0.984153
H      0.468612    -1.123676     1.124369
H      1.308137    -1.466350    -0.361493
H      2.465089     0.307039     0.915247
H      1.014248     1.323110     0.936128
H      1.884270     0.999440    -0.598438
14
Iteration 20, Energy=-157.3055599866, |grad|=0.063734
C     -1.682742     0.317804     0.050124
C     -0.566600    -0.447742    -0.682920
C      0.709736    -0.680470     0.131181
C      1.572114     0.568448     0.366723
H     -1.330000     1.178155     0.619596
H     -2.190807    -0.332365     0.741875
H     -2.409654     0.691931    -0.667643
H     -0.293550     0.053023    -1.627687
H     -0.949927    -1.423980    -1.000920
H      0.448632    -1.112578     1.116207
H      1.297860    -1.472577    -0.332717
H      2.459386     0.321436     0.922633
H      1.033730     1.324684     0.939910
H      1.901823     1.014230    -0.576362
14
Iteration 21, Energy=-157.3066351727, |grad|=0.031059
C     -1.683672     0.315709     0.045156
C     -0.562176    -0.433035    -0.682356
C      0.708308    -0.682393     0.137492
C      1.576924     0.562015     0.362059
H     -1.341631     1.198042     0.600723
H     -2.175750    -0.348406     0.768637
H     -2.436721     0.659829    -0.667181
H     -0.289759     0.083821    -1.614380
H     -0.949804    -1.410188    -1.009820
H      0.442748    -1.107853     1.114734
H      1.295465    -1.466979    -0.339884
H      2.462426     0.306035     0.948066
H      1.030779     1.327369     0.917103
H      1.922865     0.996033    -0.580349
14
Iteration 22, Energy=-157.3069809813, |grad|=0.020570
C     -1.685664     0.311760     0.046988
C     -0.559123    -0.427862    -0.687341
C      0.706252    -0.680585     0.140749
C      1.582129     0.555134     0.363583
H     -1.346215     1.205973     0.584689
H     -2.160828    -0.353234     0.783567
H     -2.455826     0.637702    -0.663015
H     -0.289154     0.102144    -1.607492
H     -0.950325    -1.399524    -1.016001
H      0.434345    -1.101725     1.113889
H      1.294584    -1.463711    -0.344287
H      2.461143     0.297686     0.963675
H      1.031131     1.330173     0.902214
H      1.937551     0.986069    -0.581218
14
Iteration 23, Energy=-157.3072495643, |grad|=0.017199
C     -1.685778     0.306661     0.044728
C     -0.558836    -0.426666    -0.690346
C      0.705877    -0.679253     0.143453
C      1.584175     0.549037     0.364952
H     -1.343844     1.204647     0.569207
H     -2.148800    -0.351379     0.791374
H     -2.467546     0.620307    -0.654426
H     -0.289336     0.116327    -1.602092
H     -0.953197    -1.391534    -1.019102
H      0.422412    -1.094315     1.114405
H      1.296439    -1.457106    -0.349794
H      2.461128     0.292510     0.974837
H      1.034248     1.332424     0.890756
H      1.943057     0.978340    -0.577952
14
Iteration 24, Energy=-157.3073977956, |grad|=0.018874
C     -1.688934     0.299834     0.046056
C     -0.558795    -0.416122    -0.696256
C      0.700602    -0.677280     0.140098
C      1.593089     0.543604     0.370827
H     -1.345970     1.214085     0.539691
H     -2.118131    -0.352807     0.818893
H     -2.501970     0.579005    -0.639178
H     -0.289517     0.142388    -1.598441
H     -0.953560    -1.378547    -1.039471
H      0.403783    -1.084386     1.113508
H      1.293808    -1.455801    -0.351670
H      2.452789     0.284715     0.996785
H      1.040766     1.342027     0.871840
H      1.972040     0.959285    -0.572681
14
Iteration 25, Energy=-157.3075447041, |grad|=0.013941
C     -1.687550     0.300217     0.048379
C     -0.561885    -0.420038    -0.697154
C      0.699443    -0.677727     0.140698
C      1.588976     0.544701     0.371895
H     -1.341549     1.211682     0.532639
H     -2.113392    -0.346950     0.818231
H     -2.501084     0.572806    -0.633148
H     -0.289547     0.145236    -1.596303
H     -0.952450    -1.378110    -1.044883
H      0.399086    -1.084238     1.112788
H      1.295566    -1.453834    -0.353560
H      2.449130     0.287274     0.994587
H      1.045007     1.346852     0.874638
H      1.970248     0.952128    -0.568806
14
Iteration 26, Energy=-157.3076317749, |grad|=0.011411
C     -1.690468     0.297473     0.048720
C     -0.563396    -0.416996    -0.699384
C      0.697942    -0.676646     0.138742
C      1.587212     0.544364     0.372537
H     -1.343725     1.220831     0.521687
H     -2.099253    -0.346389     0.830407
H     -2.511043     0.554783    -0.625087
H     -0.289348     0.155242    -1.594884
H     -0.949467    -1.373802    -1.057620
H      0.393967    -1.084005     1.110799
H      1.292428    -1.454568    -0.351904
H      2.443570     0.285444     1.001729
H      1.048583     1.353508     0.871093
H      1.982997     0.940761    -0.566834
14
Iteration 27, Energy=-157.3076932616, |grad|=0.007942
C     -1.689332     0.297045     0.049701
C     -0.563303    -0.413475    -0.701238
C      0.694625    -0.676757     0.138601
C      1.585663     0.544867     0.373449
H     -1.346136     1.226127     0.512304
H     -2.089328    -0.344760     0.839532
H     -2.516288     0.542077    -0.619419
H     -0.289263     0.162177    -1.591635
H     -0.946968    -1.372101    -1.067821
H      0.391178    -1.085865     1.108669
H      1.290539    -1.453732    -0.350895
H      2.438193     0.284583     1.005391
H      1.051284     1.358628     0.869330
H      1.989135     0.931188    -0.565967
14
Iteration 28, Energy=-157.3077333079, |grad|=0.006941
C     -1.687505     0.296113     0.051251
C     -0.562851    -0.412193    -0.701796
C      0.691828    -0.676214     0.139051
C      1.584478     0.544108     0.374095
H     -1.350843     1.233162     0.503279
H     -2.079386    -0.343781     0.849043
H     -2.521479     0.530030    -0.615993
H     -0.288122     0.171472    -1.588010
H     -0.943674    -1.368025    -1.076380
H      0.389359    -1.089429     1.107269
H      1.288664    -1.451935    -0.350663
H      2.433511     0.282146     1.010154
H      1.052368     1.362774     0.865738
H      1.993651     0.921770    -0.567038
14
Iteration 29, Energy=-157.3077651983, |grad|=0.008320
C     -1.685161     0.294965     0.052008
C     -0.559816    -0.411436    -0.701717
C      0.690390    -0.677360     0.141901
C      1.581487     0.542965     0.374963
H     -1.353797     1.236298     0.499330
H     -2.075855    -0.339374     0.851736
H     -2.516692     0.527960    -0.616169
H     -0.286474     0.175506    -1.582280
H     -0.941446    -1.366968    -1.078912
H      0.390401    -1.096941     1.107334
H      1.289385    -1.447469    -0.352082
H      2.430827     0.280833     1.009715
H      1.051281     1.363939     0.864582
H      1.985469     0.917079    -0.570408
14
Iteration 30, Energy=-157.3077916042, |grad|=0.005252
C     -1.684967     0.295810     0.051586
C     -0.560048    -0.410796    -0.701608
C      0.690942    -0.677394     0.142736
C      1.581785     0.542052     0.375340
H     -1.355193     1.236706     0.496626
H     -2.072419    -0.337784     0.856210
H     -2.518232     0.525200    -0.616138
H     -0.284961     0.178150    -1.582548
H     -0.940675    -1.364957    -1.080573
H      0.389646    -1.099827     1.107332
H      1.289633    -1.447026    -0.351797
H      2.430360     0.279803     1.011904
H      1.050426     1.363686     0.862072
H      1.983705     0.916378    -0.571143
14
Iteration 31, Energy=-157.3078093104, |grad|=0.004012
C     -1.685716     0.295650     0.051682
C     -0.559989    -0.410032    -0.701503
C      0.691127    -0.678030     0.143234
C      1.582259     0.541489     0.375684
H     -1.355624     1.237372     0.494803
H     -2.068937    -0.335105     0.859757
H     -2.520084     0.523289    -0.616404
H     -0.283245     0.179468    -1.583578
H     -0.940116    -1.363040    -1.081867
H      0.389013    -1.102639     1.107176
H      1.290451    -1.447685    -0.351427
H      2.430340     0.279522     1.013565
H      1.049184     1.362960     0.860060
H      1.981339     0.916781    -0.571182
14
Iteration 32, Energy=-157.3078241197, |grad|=0.005270
C     -1.686065     0.297005     0.051432
C     -0.559458    -0.409665    -0.701664
C      0.691679    -0.679746     0.142821
C      1.581151     0.540353     0.376923
H     -1.355688     1.238694     0.493167
H     -2.065724    -0.331203     0.862887
H     -2.520753     0.521792    -0.616278
H     -0.281042     0.179206    -1.583630
H     -0.939328    -1.361306    -1.083244
H      0.389121    -1.106650     1.106790
H      1.291649    -1.449009    -0.351011
H      2.430226     0.280893     1.013436
H      1.046998     1.361969     0.859593
H      1.977235     0.917667    -0.571222
14
Iteration 33, Energy=-157.3078432350, |grad|=0.004516
C     -1.685205     0.298164     0.051189
C     -0.558580    -0.408696    -0.701456
C      0.691888    -0.682862     0.143288
C      1.578963     0.539227     0.377453
H     -1.355307     1.242155     0.489616
H     -2.060540    -0.325353     0.867248
H     -2.522720     0.518415    -0.615415
H     -0.277624     0.179581    -1.582913
H     -0.938788    -1.359143    -1.085794
H      0.388959    -1.111755     1.105412
H      1.293736    -1.451138    -0.351408
H      2.430326     0.283182     1.013464
H      1.043400     1.360365     0.859399
H      1.971492     0.917857    -0.570082
14
Iteration 34, Energy=-157.3078658760, |grad|=0.004768
C     -1.683356     0.300561     0.051142
C     -0.556987    -0.409244    -0.701094
C      0.692360    -0.686229     0.143005
C      1.576061     0.538528     0.378927
H     -1.354358     1.247124     0.486208
H     -2.056804    -0.319669     0.869846
H     -2.523059     0.516205    -0.614137
H     -0.273752     0.178709    -1.581718
H     -0.939275    -1.358266    -1.087499
H      0.389807    -1.117109     1.104031
H      1.295583    -1.453869    -0.352322
H      2.430497     0.287124     1.011356
H      1.038155     1.357093     0.861619
H      1.965127     0.919042    -0.569365
14
Iteration 35, Energy=-157.3078881914, |grad|=0.009273
C     -1.677850     0.305776     0.051119
C     -0.555024    -0.410606    -0.701951
C      0.695657    -0.693160     0.142596
C      1.570381     0.536248     0.379241
H     -1.351422     1.257414     0.478209
H     -2.050692    -0.309371     0.874119
H     -2.522396     0.513462    -0.611762
H     -0.265869     0.175510    -1.579118
H     -0.942171    -1.357500    -1.088537
H      0.391961    -1.127389     1.102124
H      1.298222    -1.458378    -0.354639
H      2.432496     0.295368     1.007342
H      1.024734     1.348861     0.869135
H      1.951972     0.923766    -0.567878
14
Iteration 36, Energy=-157.3079111626, |grad|=0.004501
C     -1.675674     0.307351     0.050165
C     -0.553628    -0.412202    -0.700141
C      0.695211    -0.694694     0.142939
C      1.568925     0.537077     0.380594
H     -1.349637     1.259797     0.476466
H     -2.051330    -0.307596     0.873152
H     -2.519340     0.515621    -0.611659
H     -0.263858     0.173683    -1.579127
H     -0.944652    -1.358965    -1.086315
H      0.393841    -1.129476     1.101806
H      1.299227    -1.459333    -0.356584
H      2.433556     0.297869     1.004757
H      1.020251     1.343498     0.872548
H      1.947108     0.927370    -0.568601
14
Iteration 37, Energy=-157.3079209080, |grad|=0.003432
C     -1.675237     0.307212     0.050543
C     -0.553972    -0.412849    -0.700095
C      0.695280    -0.694011     0.142759
C      1.569610     0.537543     0.380461
H     -1.348752     1.259442     0.475659
H     -2.052004    -0.308694     0.872262
H     -2.518451     0.516771    -0.612064
H     -0.264373     0.173140    -1.579682
H     -0.945867    -1.359771    -1.084764
H      0.394238    -1.128399     1.102319
H      1.298602    -1.458724    -0.357165
H      2.433620     0.297647     1.004561
H      1.019687     1.341964     0.873904
H      1.947619     0.928729    -0.568699
14
Iteration 38, Energy=-157.3079358185, |grad|=0.003953
C     -1.674213     0.307372     0.050249
C     -0.554392    -0.413937    -0.700057
C      0.695851    -0.693808     0.142348
C      1.568991     0.537546     0.380337
H     -1.345805     1.261515     0.470374
H     -2.049509    -0.308206     0.873889
H     -2.516823     0.516783    -0.612258
H     -0.264296     0.172199    -1.580361
H     -0.948548    -1.360397    -1.082417
H      0.395388    -1.128606     1.102744
H      1.297721    -1.457748    -0.359112
H      2.433512     0.297700     1.004664
H      1.016219     1.337339     0.877859
H      1.945904     0.932248    -0.568258
14
Iteration 39, Energy=-157.3079484035, |grad|=0.007013
C     -1.671315     0.309652     0.050955
C     -0.554475    -0.414544    -0.700453
C      0.695926    -0.695992     0.141640
C      1.567418     0.536813     0.381736
H     -1.341478     1.264934     0.460634
H     -2.042355    -0.302998     0.878540
H     -2.516702     0.514577    -0.612787
H     -0.263245     0.169965    -1.580868
H     -0.951408    -1.360441    -1.080662
H      0.397326    -1.131368     1.101904
H      1.298095    -1.457948    -0.362266
H      2.432405     0.298768     1.004106
H      1.009878     1.330805     0.883660
H      1.939931     0.937775    -0.566138
14
Iteration 40, Energy=-157.3079638555, |grad|=0.004716
C     -1.670552     0.310186     0.050236
C     -0.554506    -0.415143    -0.700355
C      0.696200    -0.697000     0.140642
C      1.565390     0.536354     0.382482
H     -1.338809     1.267585     0.455728
H     -2.037838    -0.299205     0.881278
H     -2.516404     0.512761    -0.612524
H     -0.263077     0.168644    -1.581139
H     -0.952401    -1.360379    -1.080097
H      0.398265    -1.133142     1.101327
H      1.298520    -1.458087    -0.364025
H      2.431714     0.298978     1.003854
H      1.007153     1.328062     0.886888
H      1.936345     0.940386    -0.564294
14
Iteration 41, Energy=-157.3079916368, |grad|=0.004895
C     -1.667666     0.312839     0.047875
C     -0.554453    -0.416872    -0.700613
C      0.696577    -0.700088     0.138431
C      1.559613     0.535062     0.385366
H     -1.331698     1.274557     0.442283
H     -2.024930    -0.287358     0.889674
H     -2.516323     0.507048    -0.611699
H     -0.263266     0.164459    -1.582292
H     -0.954504    -1.360823    -1.078979
H      0.400944    -1.138448     1.098701
H      1.300333    -1.458687    -0.369069
H      2.429389     0.298841     1.003021
H      1.000216     1.321558     0.895931
H      1.925768     0.947911    -0.558631
14
Iteration 42, Energy=-157.3080146837, |grad|=0.006411
C     -1.664326     0.314984     0.046397
C     -0.554157    -0.418807    -0.701415
C      0.696877    -0.702164     0.136112
C      1.555493     0.534896     0.388264
H     -1.325977     1.280403     0.431508
H     -2.015338    -0.277176     0.895741
H     -2.516386     0.502765    -0.610714
H     -0.264622     0.160147    -1.584585
H     -0.956625    -1.363563    -1.077431
H      0.403043    -1.142617     1.096215
H      1.301574    -1.458078    -0.373251
H      2.427517     0.297290     1.002349
H      0.995178     1.316776     0.904712
H      1.917750     0.955142    -0.553900
14
Iteration 43, Energy=-157.3080616522, |grad|=0.009234
C     -1.653477     0.323733     0.041442
C     -0.554689    -0.427823    -0.705302
C      0.697256    -0.706831     0.130620
C      1.543527     0.534727     0.397127
H     -1.309264     1.298822     0.397590
H     -1.986234    -0.244575     0.915263
H     -2.516818     0.488817    -0.605946
H     -0.269108     0.146040    -1.593844
H     -0.962230    -1.372409    -1.072063
H      0.408856    -1.156682     1.086601
H      1.307010    -1.456053    -0.386759
H      2.421827     0.291411     1.000385
H      0.980319     1.302742     0.933204
H      1.893023     0.978081    -0.538319
14
Iteration 44, Energy=-157.3081030243, |grad|=0.011458
C     -1.646229     0.328527     0.038919
C     -0.555790    -0.431399    -0.708649
C      0.698264    -0.708628     0.124817
C      1.537314     0.537037     0.404787
H     -1.299395     1.309164     0.374941
H     -1.970835    -0.223696     0.925196
H     -2.516630     0.482093    -0.600944
H     -0.275199     0.132647    -1.603334
H     -0.966916    -1.383939    -1.065633
H      0.411206    -1.165137     1.079396
H      1.310788    -1.449904    -0.394994
H      2.418515     0.284279     0.999147
H      0.974700     1.293459     0.954317
H      1.880207     0.995497    -0.527966
14
Iteration 45, Energy=-157.3081418887, |grad|=0.007647
C     -1.644588     0.329709     0.039250
C     -0.556130    -0.433679    -0.709561
C      0.697925    -0.707750     0.123888
C      1.537396     0.537521     0.405938
H     -1.298860     1.311547     0.370632
H     -1.969884    -0.219366     0.925792
H     -2.517265     0.481996    -0.598674
H     -0.276313     0.128398    -1.607107
H     -0.967617    -1.386965    -1.063072
H      0.410699    -1.167869     1.076601
H      1.312984    -1.447559    -0.396463
H      2.418775     0.282905     0.998491
H      0.974375     1.291848     0.959822
H      1.878502     0.999265    -0.525537
14
Iteration 46, Energy=-157.3081988007, |grad|=0.007621
C     -1.639033     0.334880     0.037707
C     -0.557824    -0.439868    -0.712677
C      0.698304    -0.707409     0.120373
C      1.534484     0.538511     0.411211
H     -1.294170     1.321377     0.351244
H     -1.961578    -0.203674     0.933098
H     -2.519489     0.479570    -0.592259
H     -0.279381     0.113952    -1.617815
H     -0.970767    -1.394788    -1.054449
H      0.410175    -1.178018     1.067448
H      1.319916    -1.440149    -0.402856
H      2.418924     0.279345     0.996439
H      0.970816     1.283053     0.979147
H      1.869624     1.013218    -0.516612
14
Iteration 47, Energy=-157.3082331629, |grad|=0.007666
C     -1.637112     0.338043     0.036243
C     -0.558294    -0.442741    -0.714353
C      0.698561    -0.707454     0.117848
C      1.531862     0.538916     0.415213
H     -1.290251     1.328747     0.335970
H     -1.954138    -0.192023     0.938667
H     -2.521910     0.478093    -0.588330
H     -0.281896     0.102256    -1.625188
H     -0.973514    -1.400027    -1.047304
H      0.409920    -1.185632     1.060299
H      1.325825    -1.434498    -0.408398
H      2.419479     0.277356     0.994736
H      0.968756     1.276005     0.993496
H      1.862713     1.022959    -0.508900
14
Iteration 48, Energy=-157.3082538865, |grad|=0.013843
C     -1.632180     0.346985     0.030540
C     -0.561705    -0.449613    -0.715441
C      0.701923    -0.710005     0.108989
C      1.523932     0.537918     0.427264
H     -1.281831     1.344839     0.300417
H     -1.933020    -0.163351     0.952832
H     -2.530039     0.472886    -0.581437
H     -0.286857     0.076612    -1.640711
H     -0.978729    -1.408369    -1.031153
H      0.410129    -1.204540     1.045051
H      1.338864    -1.422017    -0.421412
H      2.421009     0.274612     0.990326
H      0.964026     1.260452     1.024997
H      1.844476     1.043590    -0.490261
14
Iteration 49, Energy=-157.3082906884, |grad|=0.004354
C     -1.634643     0.345834     0.030316
C     -0.560559    -0.446777    -0.715863
C      0.701145    -0.710237     0.111742
C      1.525038     0.537846     0.425732
H     -1.283340     1.342756     0.303876
H     -1.934286    -0.166652     0.950487
H     -2.529544     0.473635    -0.582971
H     -0.286629     0.078787    -1.637443
H     -0.979106    -1.406928    -1.031603
H      0.411131    -1.202444     1.046170
H      1.337747    -1.423362    -0.421274
H      2.422126     0.275885     0.990904
H      0.964734     1.261390     1.021405
H      1.846185     1.040268    -0.491478
14
Iteration 50, Energy=-157.3082992464, |grad|=0.004262
C     -1.633204     0.347116     0.028999
C     -0.560337    -0.447531    -0.716036
C      0.701185    -0.711208     0.110810
C      1.523047     0.537526     0.427617
H     -1.280639     1.345811     0.297933
H     -1.928225    -0.160860     0.953210
H     -2.529673     0.470878    -0.582986
H     -0.287547     0.076869    -1.638195
H     -0.980762    -1.408246    -1.030279
H      0.413076    -1.204851     1.045137
H      1.338073    -1.423189    -0.424328
H      2.421563     0.275310     0.990687
H      0.961942     1.258680     1.026143
H      1.841502     1.043695    -0.488712
14
Iteration 51, Energy=-157.3083149596, |grad|=0.004939
C     -1.633106     0.348885     0.026707
C     -0.560388    -0.447743    -0.715115
C      0.701894    -0.712016     0.110264
C      1.521924     0.537185     0.430147
H     -1.280740     1.347627     0.292793
H     -1.922354    -0.155620     0.952808
H     -2.530305     0.468503    -0.583877
H     -0.288677     0.075234    -1.638186
H     -0.983247    -1.408663    -1.026788
H      0.416382    -1.207790     1.044552
H      1.337613    -1.421991    -0.428405
H      2.423061     0.275975     0.990503
H      0.960706     1.255466     1.030090
H      1.837236     1.044947    -0.485493
14
Iteration 52, Energy=-157.3083305117, |grad|=0.005430
C     -1.628252     0.354614     0.021904
C     -0.561893    -0.450789    -0.715980
C      0.703400    -0.714076     0.107479
C      1.518369     0.535663     0.437627
H     -1.277046     1.358381     0.270748
H     -1.906643    -0.136661     0.958883
H     -2.533332     0.462247    -0.582368
H     -0.292232     0.063070    -1.644275
H     -0.989216    -1.413868    -1.015892
H      0.422134    -1.219432     1.037725
H      1.341199    -1.415610    -0.439634
H      2.424559     0.275092     0.988620
H      0.955309     1.244765     1.049774
H      1.823643     1.056604    -0.474610
14
Iteration 53, Energy=-157.3083431920, |grad|=0.003204
C     -1.626775     0.357999     0.019734
C     -0.562159    -0.453487    -0.716013
C      0.703805    -0.714145     0.105700
C      1.516820     0.535895     0.441347
H     -1.276921     1.364510     0.259621
H     -1.901174    -0.127648     0.960687
H     -2.533999     0.459566    -0.580772
H     -0.293975     0.056165    -1.648641
H     -0.992282    -1.416903    -1.008938
H      0.425256    -1.226242     1.034081
H      1.343044    -1.411197    -0.445498
H      2.426479     0.274306     0.987816
H      0.954081     1.238573     1.060211
H      1.817798     1.062607    -0.469334
14
Iteration 54, Energy=-157.3083503682, |grad|=0.002943
C     -1.626970     0.358682     0.019992
C     -0.562376    -0.453419    -0.715368
C      0.704276    -0.713953     0.106092
C      1.517719     0.535816     0.441234
H     -1.279624     1.365697     0.258736
H     -1.903226    -0.127737     0.959213
H     -2.533635     0.459362    -0.581299
H     -0.293631     0.055306    -1.648725
H     -0.992683    -1.416452    -1.006696
H      0.426988    -1.227738     1.033851
H      1.342436    -1.409922    -0.446637
H      2.427591     0.274803     0.987593
H      0.955174     1.237228     1.061109
H      1.817960     1.062327    -0.469095
14
Iteration 55, Energy=-157.3083573069, |grad|=0.002918
C     -1.626341     0.360879     0.019501
C     -0.562440    -0.453624    -0.714487
C      0.704892    -0.714398     0.105648
C      1.517278     0.535454     0.442618
H     -1.281093     1.369527     0.252855
H     -1.902567    -0.123635     0.960431
H     -2.533301     0.457316    -0.581647
H     -0.293745     0.051808    -1.649787
H     -0.993864    -1.417107    -1.003013
H      0.430013    -1.231480     1.032059
H      1.342894    -1.408119    -0.450104
H      2.428170     0.274541     0.986754
H      0.954961     1.233572     1.066005
H      1.815144     1.065268    -0.466832
14
Iteration 56, Energy=-157.3083629009, |grad|=0.005438
C     -1.626132     0.362866     0.019460
C     -0.562634    -0.453843    -0.712296
C      0.706849    -0.715623     0.104579
C      1.516429     0.534484     0.443599
H     -1.284108     1.376877     0.244039
H     -1.902624    -0.115880     0.962375
H     -2.532111     0.452874    -0.584064
H     -0.293276     0.047264    -1.649339
H     -0.995112    -1.416590    -0.997497
H      0.436379    -1.237332     1.030105
H      1.342930    -1.406399    -0.456189
H      2.429024     0.273434     0.985280
H      0.954157     1.227978     1.073290
H      1.810228     1.069891    -0.463343
14
Iteration 57, Energy=-157.3083700633, |grad|=0.002113
C     -1.626929     0.362995     0.019765
C     -0.561893    -0.452695    -0.710905
C      0.706677    -0.715817     0.105108
C      1.517226     0.534366     0.442872
H     -1.285872     1.375119     0.247044
H     -1.905807    -0.117864     0.962025
H     -2.531471     0.452793    -0.585753
H     -0.292464     0.049581    -1.646996
H     -0.994310    -1.415488    -0.999018
H      0.437133    -1.235737     1.031301
H      1.342229    -1.408032    -0.455548
H      2.428761     0.273337     0.985053
H      0.954906     1.229097     1.070126
H      1.811815     1.068345    -0.465077
14
Iteration 58, Energy=-157.3083725653, |grad|=0.001691
C     -1.627313     0.362900     0.019564
C     -0.561779    -0.452606    -0.710511
C      0.706956    -0.716053     0.104977
C      1.517146     0.534305     0.442952
H     -1.285957     1.374776     0.247426
H     -1.906215    -0.117143     0.962537
H     -2.531668     0.452556    -0.586394
H     -0.292397     0.050011    -1.646305
H     -0.994124    -1.415545    -0.999422
H      0.437242    -1.235477     1.031374
H      1.342600    -1.408459    -0.455633
H      2.428862     0.272842     0.984787
H      0.954824     1.229337     1.069804
H      1.811823     1.068555    -0.465155
14
Iteration 59, Energy=-157.3083757372, |grad|=0.001572
C     -1.628541     0.362603     0.019550
C     -0.561620    -0.452651    -0.709579
C      0.707509    -0.716204     0.105018
C      1.517930     0.534117     0.442686
H     -1.287394     1.374324     0.248555
H     -1.908687    -0.115882     0.962787
H     -2.531922     0.452156    -0.588171
H     -0.292067     0.051059    -1.644627
H     -0.993673    -1.415464    -0.999625
H      0.438073    -1.235284     1.031671
H      1.343249    -1.408951    -0.455989
H      2.429586     0.271915     0.984012
H      0.955232     1.229660     1.069119
H      1.812326     1.068603    -0.465407
14
Iteration 60, Energy=-157.3083770986, |grad|=0.002184
C     -1.629122     0.362453     0.019226
C     -0.561866    -0.452634    -0.709176
C      0.708103    -0.716354     0.105038
C      1.518256     0.534217     0.442712
H     -1.288679     1.374451     0.248781
H     -1.910793    -0.115002     0.962772
H     -2.532183     0.452046    -0.589122
H     -0.292102     0.051287    -1.643983
H     -0.993589    -1.415950    -0.999077
H      0.438794    -1.235685     1.031661
H      1.343589    -1.408318    -0.456229
H      2.430773     0.271323     0.983508
H      0.956041     1.229331     1.069315
H      1.812779     1.068835    -0.465425
14
Iteration 61, Energy=-157.3083784456, |grad|=0.001081
C     -1.629761     0.362533     0.019135
C     -0.561962    -0.452996    -0.708840
C      0.708314    -0.716205     0.105141
C      1.518922     0.534037     0.442787
H     -1.289722     1.374770     0.248457
H     -1.912287    -0.113874     0.962669
H     -2.532368     0.451803    -0.589935
H     -0.292231     0.051284    -1.643604
H     -0.993606    -1.416343    -0.998349
H      0.439621    -1.236294     1.031539
H      1.344026    -1.407750    -0.456791
H      2.431633     0.270908     0.982913
H      0.956568     1.228908     1.070035
H      1.812854     1.069221    -0.465157
14
Iteration 62, Energy=-157.3083791862, |grad|=0.000763
C     -1.630190     0.362545     0.019121
C     -0.562184    -0.453241    -0.708640
C      0.708329    -0.716004     0.105280
C      1.519474     0.533981     0.442793
H     -1.290361     1.374884     0.248219
H     -1.913577    -0.113524     0.962405
H     -2.532498     0.451784    -0.590495
H     -0.292538     0.051351    -1.643451
H     -0.993523    -1.416653    -0.997886
H      0.440186    -1.236652     1.031570
H      1.344184    -1.407142    -0.456966
H      2.432320     0.270741     0.982447
H      0.957300     1.228631     1.070598
H      1.813079     1.069298    -0.464996
14
Iteration 63, Energy=-157.3083797949, |grad|=0.000908
C     -1.630636     0.362494     0.019074
C     -0.562402    -0.453376    -0.708558
C      0.708253    -0.715745     0.105483
C      1.519807     0.533938     0.442856
H     -1.290577     1.374819     0.247894
H     -1.914606    -0.113453     0.962147
H     -2.532591     0.451850    -0.590924
H     -0.293096     0.051407    -1.643343
H     -0.993376    -1.416980    -0.997653
H      0.440590    -1.236808     1.031656
H      1.344249    -1.406580    -0.456979
H      2.432929     0.270609     0.981998
H      0.958168     1.228486     1.071226
H      1.813290     1.069340    -0.464877
14
Iteration 64, Energy=-157.3083804157, |grad|=0.001693
C     -1.631172     0.362272     0.018874
C     -0.563000    -0.453615    -0.707983
C      0.708144    -0.715417     0.105601
C      1.520465     0.533974     0.443039
H     -1.290542     1.374516     0.247066
H     -1.916325    -0.113411     0.961910
H     -2.532906     0.451920    -0.591956
H     -0.294336     0.051587    -1.643154
H     -0.992907    -1.417419    -0.997522
H      0.441252    -1.236849     1.031975
H      1.344217    -1.405725    -0.456931
H      2.433822     0.270192     0.980993
H      0.959889     1.228467     1.072684
H      1.813399     1.069508    -0.464595
14
Iteration 65, Energy=-157.3083810660, |grad|=0.000767
C     -1.631585     0.362090     0.018858
C     -0.562994    -0.453550    -0.708085
C      0.708021    -0.715217     0.105864
C      1.520391     0.534102     0.443101
H     -1.290205     1.374127     0.246906
H     -1.916739    -0.113660     0.961755
H     -2.532894     0.452021    -0.592231
H     -0.294935     0.051677    -1.642904
H     -0.992683    -1.417530    -0.997745
H      0.441293    -1.236518     1.032148
H      1.344114    -1.405683    -0.456810
H      2.434133     0.269952     0.980690
H      0.960656     1.228661     1.073079
H      1.813426     1.069527    -0.464626
14
Iteration 66, Energy=-157.3083813024, |grad|=0.000480
C     -1.631580     0.361994     0.018791
C     -0.562955    -0.453488    -0.708070
C      0.708032    -0.715183     0.105852
C      1.520250     0.534146     0.443153
H     -1.289907     1.373921     0.246912
H     -1.916535    -0.113834     0.961794
H     -2.532842     0.452039    -0.592226
H     -0.295032     0.051708    -1.642863
H     -0.992613    -1.417460    -0.997961
H      0.441124    -1.236245     1.032252
H      1.343971    -1.405892    -0.456733
H      2.434044     0.269824     0.980646
H      0.960768     1.228870     1.073154
H      1.813277     1.069598    -0.464701
14
Iteration 67, Energy=-157.3083814909, |grad|=0.000479
C     -1.631541     0.361862     0.018722
C     -0.562930    -0.453438    -0.708016
C      0.708014    -0.715157     0.105879
C      1.520232     0.534260     0.443183
H     -1.289703     1.373682     0.246916
H     -1.916476    -0.113992     0.961756
H     -2.532812     0.452047    -0.592346
H     -0.295113     0.051737    -1.642815
H     -0.992542    -1.417439    -0.998106
H      0.440979    -1.235903     1.032374
H      1.343757    -1.406085    -0.456680
H      2.434063     0.269574     0.980479
H      0.961050     1.229089     1.073394
H      1.813022     1.069763    -0.464740
14
Iteration 68, Energy=-157.3083817146, |grad|=0.000744
C     -1.631637     0.361725     0.018532
C     -0.562946    -0.453533    -0.707974
C      0.708010    -0.714937     0.105884
C      1.520336     0.534341     0.443281
H     -1.289687     1.373450     0.246941
H     -1.916717    -0.114199     0.961563
H     -2.532708     0.452055    -0.592584
H     -0.295150     0.051721    -1.642807
H     -0.992466    -1.417494    -0.998041
H      0.440839    -1.235518     1.032614
H      1.343413    -1.406163    -0.456620
H      2.434343     0.269163     0.980047
H      0.961726     1.229245     1.073943
H      1.812644     1.070144    -0.464778
14
Iteration 69, Energy=-157.3083820103, |grad|=0.000622
C     -1.631693     0.361576     0.018381
C     -0.562958    -0.453536    -0.707959
C      0.707924    -0.714753     0.106022
C      1.520578     0.534445     0.443279
H     -1.289853     1.373262     0.247028
H     -1.917115    -0.114390     0.961250
H     -2.532652     0.452059    -0.592948
H     -0.295083     0.051635    -1.642820
H     -0.992428    -1.417669    -0.997838
H      0.440723    -1.235080     1.032805
H      1.343054    -1.406184    -0.456563
H      2.434776     0.268680     0.979450
H      0.962543     1.229321     1.074647
H      1.812185     1.070635    -0.464736
14
Iteration 70, Energy=-157.3083824465, |grad|=0.000713
C     -1.631967     0.361538     0.018168
C     -0.562975    -0.453643    -0.707940
C      0.707690    -0.714449     0.106217
C      1.520974     0.534634     0.443283
H     -1.290365     1.373064     0.247338
H     -1.917919    -0.114773     0.960590
H     -2.532611     0.452059    -0.593703
H     -0.294766     0.051349    -1.642935
H     -0.992311    -1.417918    -0.997299
H      0.440483    -1.234346     1.033165
H      1.342531    -1.406121    -0.456321
H      2.435731     0.267907     0.978093
H      0.964112     1.229107     1.075924
H      1.811394     1.071593    -0.464579
14
Iteration 71, Energy=-157.3083827351, |grad|=0.000952
C     -1.632375     0.361410     0.017757
C     -0.563094    -0.453486    -0.707966
C      0.707516    -0.713961     0.106555
C      1.521540     0.534479     0.443084
H     -1.291109     1.373136     0.247828
H     -1.918996    -0.115227     0.959825
H     -2.532599     0.452089    -0.594611
H     -0.294327     0.050854    -1.643029
H     -0.992201    -1.418254    -0.996596
H      0.440219    -1.233651     1.033602
H      1.342138    -1.405979    -0.455921
H      2.436945     0.267195     0.976274
H      0.965776     1.228686     1.077551
H      1.810567     1.072707    -0.464353
14
Iteration 72, Energy=-157.3083830073, |grad|=0.000485
C     -1.632413     0.361584     0.017797
C     -0.563067    -0.453465    -0.707949
C      0.707486    -0.714044     0.106575
C      1.521459     0.534512     0.443101
H     -1.291231     1.373190     0.247939
H     -1.918997    -0.115295     0.959758
H     -2.532669     0.452122    -0.594667
H     -0.294230     0.050760    -1.643092
H     -0.992169    -1.418171    -0.996564
H      0.440164    -1.233653     1.033608
H      1.342255    -1.405980    -0.455752
H      2.437075     0.267300     0.976042
H      0.965761     1.228412     1.077561
H      1.810577     1.072729    -0.464356
14
Iteration 73, Energy=-157.3083832288, |grad|=0.000429
C     -1.632547     0.361732     0.017770
C     -0.563002    -0.453377    -0.707907
C      0.707453    -0.714097     0.106632
C      1.521396     0.534516     0.443067
H     -1.291369     1.373272     0.248157
H     -1.919023    -0.115489     0.959588
H     -2.532746     0.452214    -0.594809
H     -0.294116     0.050581    -1.643170
H     -0.992091    -1.418004    -0.996562
H      0.439996    -1.233540     1.033721
H      1.342410    -1.406077    -0.455391
H      2.437365     0.267411     0.975474
H      0.965823     1.228023     1.077803
H      1.810450     1.072835    -0.464373
14
Iteration 74, Energy=-157.3083834039, |grad|=0.000490
C     -1.632616     0.361792     0.017654
C     -0.562952    -0.453287    -0.707906
C      0.707478    -0.714054     0.106794
C      1.521433     0.534524     0.443049
H     -1.291533     1.373239     0.248385
H     -1.919188    -0.115780     0.959300
H     -2.532784     0.452371    -0.595056
H     -0.294057     0.050423    -1.643230
H     -0.992011    -1.417849    -0.996577
H      0.439763    -1.233249     1.033955
H      1.342457    -1.406286    -0.454938
H      2.437858     0.267390     0.974657
H      0.966103     1.227679     1.078376
H      1.810050     1.073087    -0.464462
14
Iteration 75, Energy=-157.3083834837, |grad|=0.001102
C     -1.632907     0.361660     0.017321
C     -0.562683    -0.453108    -0.707775
C      0.707427    -0.714047     0.107043
C      1.521685     0.534684     0.442987
H     -1.291805     1.373214     0.248833
H     -1.919647    -0.116364     0.958581
H     -2.532674     0.452790    -0.595520
H     -0.293997     0.050288    -1.643424
H     -0.991926    -1.417652    -0.996698
H      0.439294    -1.232587     1.034555
H      1.342492    -1.406777    -0.453863
H      2.439045     0.267362     0.972873
H      0.966810     1.226951     1.079732
H      1.808887     1.073587    -0.464645
14
Iteration 76, Energy=-157.3083837076, |grad|=0.000370
C     -1.632743     0.361673     0.017341
C     -0.562761    -0.453161    -0.707880
C      0.707495    -0.713974     0.107137
C      1.521678     0.534606     0.443006
H     -1.291756     1.373080     0.248794
H     -1.919671    -0.116400     0.958592
H     -2.532669     0.452814    -0.595560
H     -0.294038     0.050361    -1.643377
H     -0.991913    -1.417640    -0.996755
H      0.439275    -1.232507     1.034590
H      1.342432    -1.406867    -0.453854
H      2.439066     0.267336     0.972867
H      0.966866     1.227046     1.079809
H      1.808738     1.073636    -0.464711
14
Iteration 77, Energy=-157.3083837846, |grad|=0.000316
C     -1.632658     0.361622     0.017335
C     -0.562767    -0.453199    -0.707943
C      0.707513    -0.713968     0.107194
C      1.521708     0.534593     0.443014
H     -1.291695     1.372998     0.248773
H     -1.919727    -0.116427     0.958564
H     -2.532601     0.452871    -0.595579
H     -0.294070     0.050480    -1.643354
H     -0.991926    -1.417663    -0.996837
H      0.439257    -1.232432     1.034657
H      1.342384    -1.406967    -0.453773
H      2.439148     0.267354     0.972809
H      0.966942     1.227069     1.079906
H      1.808491     1.073667    -0.464768
14
Iteration 78, Energy=-157.3083839075, |grad|=0.000369
C     -1.632552     0.361550     0.017317
C     -0.562724    -0.453260    -0.708049
C      0.707504    -0.714008     0.107322
C      1.521738     0.534552     0.442998
H     -1.291567     1.372879     0.248819
H     -1.919873    -0.116533     0.958444
H     -2.532428     0.453047    -0.595648
H     -0.294061     0.050743    -1.643324
H     -0.991935    -1.417677    -0.997059
H      0.439159    -1.232263     1.034866
H      1.342359    -1.407233    -0.453416
H      2.439448     0.267517     0.972467
H      0.967110     1.226929     1.080171
H      1.807822     1.073757    -0.464907
14
Iteration 79, Energy=-157.3083840358, |grad|=0.000504
C     -1.632432     0.361491     0.017277
C     -0.562695    -0.453251    -0.708124
C      0.707469    -0.714201     0.107496
C      1.521690     0.534486     0.442924
H     -1.291326     1.372754     0.248991
H     -1.920126    -0.116680     0.958299
H     -2.532195     0.453283    -0.595847
H     -0.293852     0.051053    -1.643187
H     -0.991882    -1.417718    -0.997374
H      0.438954    -1.232068     1.035170
H      1.342319    -1.407560    -0.452855
H      2.439865     0.267817     0.971807
H      0.967401     1.226615     1.080519
H      1.806808     1.073978    -0.465094
14
Iteration 80, Energy=-157.3083841359, |grad|=0.000463
C     -1.632391     0.361498     0.017308
C     -0.562518    -0.453400    -0.708152
C      0.707316    -0.714358     0.107742
C      1.521570     0.534359     0.442771
H     -1.290918     1.372600     0.249235
H     -1.920328    -0.116821     0.958127
H     -2.531864     0.453614    -0.596026
H     -0.293531     0.051466    -1.642979
H     -0.991773    -1.417612    -0.997871
H      0.438656    -1.231949     1.035559
H      1.342410    -1.408093    -0.452168
H      2.440308     0.268340     0.970968
H      0.967516     1.226187     1.080869
H      1.805545     1.074168    -0.465381
14
Iteration 81, Energy=-157.3083842157, |grad|=0.000252
C     -1.632398     0.361501     0.017313
C     -0.562514    -0.453358    -0.708089
C      0.707326    -0.714431     0.107745
C      1.521498     0.534402     0.442731
H     -1.290856     1.372603     0.249298
H     -1.920345    -0.116786     0.958136
H     -2.531860     0.453620    -0.596076
H     -0.293385     0.051415    -1.642879
H     -0.991728    -1.417601    -0.997887
H      0.438611    -1.232015     1.035567
H      1.342383    -1.408069    -0.452174
H      2.440282     0.268358     0.970861
H      0.967479     1.226156     1.080852
H      1.805507     1.074205    -0.465399
