9
Iteration -1, Energy=-117.0600004090, |grad|=0.093766
C     -0.619005    -0.685993     0.033532
C     -0.329522     0.799292    -0.115422
C      0.774508    -0.172826     0.088486
H     -1.053569    -1.059631     0.962922
H     -0.787308    -1.246734    -0.873479
H     -0.669773     1.408219     0.719250
H     -0.312330     1.324469    -1.103512
H      1.336796    -0.463606    -0.784267
H      1.373286    -0.151738     1.009884
9
Iteration 1, Energy=-117.0618348740, |grad|=0.061869
C     -0.615489    -0.683318     0.032411
C     -0.332062     0.804699    -0.127903
C      0.790057    -0.174392     0.101390
H     -1.056679    -1.055923     0.956081
H     -0.795823    -1.249801    -0.871643
H     -0.664739     1.408814     0.716989
H     -0.321307     1.313986    -1.088798
H      1.342660    -0.458603    -0.785869
H      1.366467    -0.154013     1.004736
9
Iteration 2, Energy=-117.0628609157, |grad|=0.051789
C     -0.609097    -0.678852     0.030002
C     -0.330944     0.801172    -0.126654
C      0.793391    -0.174139     0.100122
H     -1.060424    -1.051743     0.949796
H     -0.803714    -1.252510    -0.869134
H     -0.659651     1.409321     0.713242
H     -0.330135     1.307375    -1.082570
H      1.348938    -0.453300    -0.785209
H      1.364721    -0.155875     1.007799
9
Iteration 3, Energy=-117.0655260274, |grad|=0.047214
C     -0.593116    -0.680394     0.016881
C     -0.319919     0.784074    -0.109161
C      0.819252    -0.170336     0.092544
H     -1.078647    -1.021764     0.909456
H     -0.848536    -1.261573    -0.850562
H     -0.629470     1.414716     0.697258
H     -0.384710     1.274255    -1.064425
H      1.393064    -0.419848    -0.783087
H      1.355167    -0.167679     1.028490
9
Iteration 4, Energy=-117.0660823470, |grad|=0.039575
C     -0.586702    -0.679884     0.015660
C     -0.313566     0.778321    -0.115238
C      0.816609    -0.172008     0.093222
H     -1.084788    -1.017384     0.909783
H     -0.859964    -1.263692    -0.853302
H     -0.623769     1.420314     0.704591
H     -0.398855     1.267376    -1.067152
H      1.410252    -0.409871    -0.784232
H      1.353867    -0.171722     1.034062
9
Iteration 5, Energy=-117.0664488983, |grad|=0.027137
C     -0.587363    -0.683253     0.015713
C     -0.313055     0.781488    -0.115372
C      0.817325    -0.175258     0.091493
H     -1.086802    -1.016555     0.913747
H     -0.863531    -1.263157    -0.856287
H     -0.620656     1.420847     0.707978
H     -0.404121     1.265722    -1.073315
H      1.418096    -0.404800    -0.782355
H      1.353191    -0.173585     1.035791
9
Iteration 6, Energy=-117.0669069544, |grad|=0.016081
C     -0.591900    -0.687831     0.016904
C     -0.313060     0.783903    -0.115279
C      0.819716    -0.181044     0.089786
H     -1.089047    -1.013570     0.921999
H     -0.874759    -1.258895    -0.862974
H     -0.608282     1.419807     0.713880
H     -0.420158     1.258327    -1.088185
H      1.443092    -0.389062    -0.774904
H      1.347482    -0.180187     1.036167
9
Iteration 7, Energy=-117.0670098910, |grad|=0.021619
C     -0.595244    -0.689472     0.015312
C     -0.314845     0.785110    -0.120801
C      0.818157    -0.182314     0.083624
H     -1.086555    -1.013715     0.926804
H     -0.879512    -1.251925    -0.863255
H     -0.600581     1.417739     0.715091
H     -0.426273     1.251200    -1.089749
H      1.454479    -0.381228    -0.766964
H      1.343458    -0.183944     1.037330
9
Iteration 8, Energy=-117.0671028478, |grad|=0.010601
C     -0.595543    -0.687674     0.015928
C     -0.315818     0.783487    -0.119667
C      0.817406    -0.181734     0.084656
H     -1.084216    -1.014096     0.927448
H     -0.881820    -1.249620    -0.864061
H     -0.597400     1.416326     0.713634
H     -0.428219     1.249185    -1.091095
H      1.458559    -0.379356    -0.765173
H      1.340136    -0.185068     1.035723
9
Iteration 9, Energy=-117.0671626009, |grad|=0.006898
C     -0.596307    -0.685312     0.016718
C     -0.317238     0.780959    -0.119772
C      0.816075    -0.180383     0.084483
H     -1.078779    -1.015902     0.928423
H     -0.884517    -1.244974    -0.864743
H     -0.593708     1.414974     0.711686
H     -0.429305     1.246224    -1.091605
H      1.462151    -0.378006    -0.761947
H      1.334711    -0.186128     1.034150
9
Iteration 10, Energy=-117.0671959618, |grad|=0.007371
C     -0.596144    -0.684944     0.016263
C     -0.317581     0.780272    -0.119937
C      0.815495    -0.179791     0.083949
H     -1.074098    -1.018102     0.929446
H     -0.887164    -1.241442    -0.865305
H     -0.591789     1.415581     0.710895
H     -0.430029     1.244115    -1.092122
H      1.464077    -0.377931    -0.760631
H      1.330318    -0.186309     1.034836
9
Iteration 1, Energy=-117.0671924732, |grad|=0.008360
C     -0.596142    -0.684033     0.016260
C     -0.317580     0.780274    -0.119937
C      0.815494    -0.179790     0.083944
H     -1.074076    -1.018114     0.929450
H     -0.887186    -1.241411    -0.865307
H     -0.591779     1.415207     0.710895
H     -0.430033     1.244101    -1.092125
H      1.464090    -0.377938    -0.760470
H      1.330278    -0.186306     1.034844
9
Iteration 2, Energy=-117.0671980074, |grad|=0.007461
C     -0.596101    -0.684744     0.016178
C     -0.317550     0.780306    -0.119935
C      0.815518    -0.179802     0.083883
H     -1.073801    -1.018257     0.929530
H     -0.887420    -1.241222    -0.865360
H     -0.591673     1.415532     0.710905
H     -0.430148     1.243962    -1.092212
H      1.464248    -0.377914    -0.760549
H      1.330011    -0.186309     1.035001
9
Iteration -1, Energy=-117.0671980074, |grad|=0.007461
C     -0.596101    -0.684744     0.016178
C     -0.317550     0.780306    -0.119935
C      0.815518    -0.179802     0.083883
H     -1.073801    -1.018257     0.929530
H     -0.887420    -1.241222    -0.865360
H     -0.591673     1.415532     0.710905
H     -0.430148     1.243962    -1.092212
H      1.464248    -0.377914    -0.760549
H      1.330011    -0.186309     1.035001
9
Iteration 1, Energy=-117.0672163196, |grad|=0.008797
C     -0.596008    -0.686464     0.016277
C     -0.317008     0.781873    -0.120689
C      0.816597    -0.180363     0.082361
H     -1.071987    -1.019464     0.929384
H     -0.888613    -1.240651    -0.865843
H     -0.592277     1.417501     0.711512
H     -0.430116     1.243572    -1.092053
H      1.463516    -0.378689    -0.760843
H      1.328980    -0.185765     1.037335
9
Iteration 2, Energy=-117.0672330612, |grad|=0.005797
C     -0.595214    -0.686508     0.015907
C     -0.316546     0.781910    -0.120180
C      0.816503    -0.180428     0.082655
H     -1.070699    -1.020575     0.929597
H     -0.889615    -1.240319    -0.866311
H     -0.592525     1.418762     0.711529
H     -0.430186     1.243527    -1.092464
H      1.463464    -0.379436    -0.761592
H      1.327902    -0.185382     1.038298
9
Iteration 3, Energy=-117.0672586563, |grad|=0.004532
C     -0.593601    -0.686568     0.015270
C     -0.315771     0.782614    -0.118608
C      0.817339    -0.180633     0.083619
H     -1.065720    -1.024466     0.929810
H     -0.892904    -1.238815    -0.867717
H     -0.592940     1.422479     0.710726
H     -0.430265     1.242991    -1.093178
H      1.463104    -0.381789    -0.763256
H      1.323843    -0.184262     1.040773
9
Iteration 4, Energy=-117.0672704043, |grad|=0.005776
C     -0.593144    -0.685661     0.014919
C     -0.315551     0.782124    -0.118468
C      0.816762    -0.180244     0.082836
H     -1.061899    -1.027491     0.929917
H     -0.894712    -1.236933    -0.868009
H     -0.592691     1.424587     0.709600
H     -0.430110     1.242083    -1.092675
H      1.463039    -0.382962    -0.762912
H      1.321389    -0.183952     1.042231
9
Iteration 5, Energy=-117.0672820757, |grad|=0.003378
C     -0.593684    -0.685278     0.014661
C     -0.315980     0.782435    -0.118179
C      0.816677    -0.179795     0.082817
H     -1.057644    -1.030769     0.930023
H     -0.896377    -1.234426    -0.868049
H     -0.591907     1.426268     0.707833
H     -0.429974     1.240959    -1.092243
H      1.463418    -0.383924    -0.762093
H      1.318555    -0.183920     1.042670
9
Iteration 6, Energy=-117.0672882090, |grad|=0.003196
C     -0.594401    -0.684853     0.015700
C     -0.316677     0.782603    -0.118303
C      0.816244    -0.179691     0.082253
H     -1.054919    -1.033205     0.930483
H     -0.897442    -1.232483    -0.868698
H     -0.590879     1.427317     0.706843
H     -0.430100     1.240148    -1.092749
H      1.464394    -0.383808    -0.760451
H      1.316864    -0.184478     1.042363
9
Iteration 7, Energy=-117.0672919779, |grad|=0.002145
C     -0.595009    -0.685075     0.015457
C     -0.317181     0.782880    -0.118749
C      0.815736    -0.179674     0.082025
H     -1.053836    -1.034756     0.931489
H     -0.897871    -1.230918    -0.868738
H     -0.589993     1.428016     0.706584
H     -0.430439     1.239494    -1.093374
H      1.465533    -0.383304    -0.759216
H      1.316145    -0.185114     1.041963
9
Iteration 8, Energy=-117.0672938005, |grad|=0.001378
C     -0.595166    -0.685296     0.015704
C     -0.317289     0.782982    -0.118809
C      0.815436    -0.179758     0.081992
H     -1.053894    -1.035107     0.931914
H     -0.898116    -1.230527    -0.869055
H     -0.589523     1.428343     0.706758
H     -0.430893     1.239210    -1.094078
H      1.466404    -0.382757    -0.758857
H      1.316124    -0.185540     1.041872
9
Iteration 9, Energy=-117.0672953680, |grad|=0.001230
C     -0.595073    -0.685293     0.015767
C     -0.317346     0.782922    -0.118780
C      0.815638    -0.179964     0.081935
H     -1.054194    -1.035479     0.932293
H     -0.898791    -1.230133    -0.869472
H     -0.588772     1.429006     0.706903
H     -0.431863     1.238422    -1.094757
H      1.467556    -0.381806    -0.758475
H      1.315929    -0.186124     1.042024
9
Iteration 10, Energy=-117.0672963966, |grad|=0.001277
C     -0.595061    -0.685553     0.015857
C     -0.317109     0.782855    -0.118608
C      0.815558    -0.179927     0.081947
H     -1.054210    -1.035649     0.932032
H     -0.899571    -1.229627    -0.869584
H     -0.587988     1.429653     0.706738
H     -0.432912     1.237376    -1.094993
H      1.468733    -0.380956    -0.758428
H      1.315644    -0.186622     1.042479
9
Iteration 1, Energy=-117.0672961501, |grad|=0.001550
C     -0.595073    -0.685336     0.015769
C     -0.317253     0.782853    -0.118676
C      0.815511    -0.179892     0.081932
H     -1.054055    -1.035894     0.932157
H     -0.899705    -1.229447    -0.869599
H     -0.587844     1.429755     0.706717
H     -0.432264     1.237214    -1.094904
H      1.468920    -0.381250    -0.758354
H      1.315470    -0.186272     1.042497
9
Iteration 2, Energy=-117.0672963146, |grad|=0.001195
C     -0.595192    -0.685430     0.015902
C     -0.317224     0.782850    -0.118605
C      0.815465    -0.179862     0.081943
H     -1.053928    -1.035986     0.932086
H     -0.899539    -1.229332    -0.869554
H     -0.587849     1.429629     0.706489
H     -0.432904     1.237322    -1.094982
H      1.468815    -0.380963    -0.758167
H      1.315542    -0.186704     1.042245
9
Iteration -1, Energy=-117.0672963146, |grad|=0.001195
C     -0.595192    -0.685430     0.015902
C     -0.317224     0.782850    -0.118605
C      0.815465    -0.179862     0.081943
H     -1.053928    -1.035986     0.932086
H     -0.899539    -1.229332    -0.869554
H     -0.587849     1.429629     0.706489
H     -0.432904     1.237322    -1.094982
H      1.468815    -0.380963    -0.758167
H      1.315542    -0.186704     1.042245
9
Iteration 1, Energy=-117.0672964714, |grad|=0.000894
C     -0.595169    -0.685418     0.015876
C     -0.317221     0.782845    -0.118627
C      0.815553    -0.179885     0.081899
H     -1.053943    -1.035967     0.932060
H     -0.899562    -1.229339    -0.869542
H     -0.587850     1.429647     0.706492
H     -0.432921     1.237279    -1.094928
H      1.468773    -0.380944    -0.758149
H      1.315526    -0.186695     1.042277
9
Iteration 2, Energy=-117.0672968199, |grad|=0.000597
C     -0.595004    -0.685346     0.015750
C     -0.317149     0.782757    -0.118619
C      0.815840    -0.179946     0.081818
H     -1.054010    -1.035839     0.931885
H     -0.899699    -1.229384    -0.869485
H     -0.587839     1.429725     0.706473
H     -0.433039     1.237068    -1.094714
H      1.468649    -0.380866    -0.758181
H      1.315436    -0.186647     1.042429
9
Iteration 3, Energy=-117.0672969839, |grad|=0.000502
C     -0.594890    -0.685365     0.015688
C     -0.317052     0.782721    -0.118531
C      0.815987    -0.179962     0.081842
H     -1.054051    -1.035693     0.931685
H     -0.899827    -1.229415    -0.869444
H     -0.587808     1.429766     0.706431
H     -0.433162     1.236882    -1.094579
H      1.468626    -0.380803    -0.758301
H      1.315363    -0.186608     1.042566
9
Iteration 4, Energy=-117.0672970440, |grad|=0.000494
C     -0.594770    -0.685347     0.015630
C     -0.316950     0.782633    -0.118477
C      0.815994    -0.179963     0.081847
H     -1.054120    -1.035598     0.931608
H     -0.899928    -1.229427    -0.869448
H     -0.587777     1.429809     0.706452
H     -0.433272     1.236741    -1.094545
H      1.468669    -0.380728    -0.758396
H      1.315339    -0.186596     1.042687
9
Iteration 5, Energy=-117.0672970928, |grad|=0.000157
C     -0.594744    -0.685416     0.015623
C     -0.316895     0.782657    -0.118402
C      0.816063    -0.179967     0.081908
H     -1.054153    -1.035500     0.931502
H     -0.900007    -1.229426    -0.869446
H     -0.587733     1.429810     0.706432
H     -0.433363     1.236618    -1.094522
H      1.468718    -0.380664    -0.758487
H      1.315301    -0.186588     1.042750
