9
Iteration 0, Energy=-116.9520983382, |grad|=0.912985
C     -0.706829    -0.584772     0.100950
C     -0.300569     0.867767    -0.236014
C      0.814258    -0.129911     0.157333
H     -1.055334    -1.130398     1.075015
H     -0.745679    -1.298732    -0.997071
H     -0.699669     1.375672     0.749265
H     -0.270356     1.294985    -1.048228
H      1.328871    -0.490548    -0.810808
H      1.348392    -0.152612     0.946950
9
Iteration 1, Energy=-117.0199937607, |grad|=0.385471
C     -0.701859    -0.624190     0.081937
C     -0.318333     0.867849    -0.163434
C      0.812077    -0.147182     0.113877
H     -1.055497    -1.116704     1.060765
H     -0.749003    -1.286531    -0.973165
H     -0.691910     1.376153     0.733145
H     -0.273243     1.318419    -1.095451
H      1.325000    -0.486190    -0.797742
H      1.365853    -0.150173     0.977462
9
Iteration 2, Energy=-117.0435353711, |grad|=0.207747
C     -0.679472    -0.657370     0.051117
C     -0.323874     0.853912    -0.129791
C      0.794287    -0.156194     0.090415
H     -1.055587    -1.100215     1.038906
H     -0.756678    -1.268319    -0.935536
H     -0.684972     1.383993     0.724864
H     -0.281572     1.325696    -1.109573
H      1.325234    -0.481413    -0.790155
H      1.375718    -0.148640     0.997146
9
Iteration 3, Energy=-117.0555341693, |grad|=0.127127
C     -0.644139    -0.686972     0.023445
C     -0.324478     0.818397    -0.115346
C      0.773476    -0.164364     0.087607
H     -1.054230    -1.076531     0.998649
H     -0.771074    -1.247002    -0.887134
H     -0.678005     1.400693     0.724183
H     -0.297427     1.329975    -1.113517
H      1.331094    -0.473679    -0.787904
H      1.377868    -0.149067     1.007410
9
Iteration 4, Energy=-117.0600004090, |grad|=0.093766
C     -0.619005    -0.685993     0.033532
C     -0.329522     0.799292    -0.115422
C      0.774508    -0.172826     0.088486
H     -1.053569    -1.059631     0.962922
H     -0.787308    -1.246734    -0.873479
H     -0.669773     1.408219     0.719250
H     -0.312330     1.324469    -1.103512
H      1.336796    -0.463606    -0.784267
H      1.373286    -0.151738     1.009884
9
Iteration 5, Energy=-117.0634294775, |grad|=0.058872
C     -0.591371    -0.680310     0.026283
C     -0.335015     0.784882    -0.114841
C      0.793100    -0.176697     0.099658
H     -1.060966    -1.040831     0.928564
H     -0.815100    -1.250248    -0.855871
H     -0.652682     1.413607     0.707345
H     -0.340204     1.305720    -1.081398
H      1.352502    -0.446882    -0.783100
H      1.362820    -0.157789     1.010754
9
Iteration 6, Energy=-117.0647734368, |grad|=0.061143
C     -0.588729    -0.683642     0.025808
C     -0.325093     0.784865    -0.123451
C      0.806172    -0.172820     0.091466
H     -1.070431    -1.028387     0.912415
H     -0.837494    -1.257213    -0.852988
H     -0.640455     1.417815     0.705357
H     -0.366103     1.284753    -1.063997
H      1.374116    -0.429623    -0.782069
H      1.361102    -0.164298     1.024851
9
Iteration 7, Energy=-117.0656509822, |grad|=0.038997
C     -0.589069    -0.683252     0.019827
C     -0.320159     0.786157    -0.118899
C      0.813224    -0.171590     0.095193
H     -1.077650    -1.025103     0.914175
H     -0.847571    -1.261003    -0.854836
H     -0.633454     1.417654     0.704316
H     -0.379672     1.277394    -1.065439
H      1.389337    -0.421316    -0.784497
H      1.358098    -0.167489     1.027553
9
Iteration 8, Energy=-117.0664438311, |grad|=0.024060
C     -0.591311    -0.684135     0.013997
C     -0.311186     0.786028    -0.112825
C      0.821850    -0.173373     0.093394
H     -1.088322    -1.018803     0.917726
H     -0.864185    -1.265106    -0.859082
H     -0.621464     1.418711     0.706932
H     -0.403686     1.266022    -1.073509
H      1.417329    -0.404295    -0.783973
H      1.354060    -0.173599     1.034733
9
Iteration 9, Energy=-117.0667903937, |grad|=0.017906
C     -0.592491    -0.685106     0.014153
C     -0.310693     0.784940    -0.113670
C      0.821461    -0.177635     0.090579
H     -1.090513    -1.015280     0.920612
H     -0.872871    -1.262205    -0.861427
H     -0.612189     1.418555     0.710795
H     -0.416729     1.259066    -1.080964
H      1.436680    -0.392396    -0.779427
H      1.350429    -0.178489     1.036743
9
Iteration 10, Energy=-117.0670584311, |grad|=0.018634
C     -0.597376    -0.686682     0.015102
C     -0.314823     0.780669    -0.116715
C      0.821134    -0.180525     0.083875
H     -1.085120    -1.013765     0.926345
H     -0.881754    -1.249880    -0.862975
H     -0.597646     1.415532     0.713880
H     -0.429184     1.249325    -1.090577
H      1.458121    -0.377689    -0.764936
H      1.339731    -0.185535     1.033394
9
Iteration 11, Energy=-117.0671278978, |grad|=0.010610
C     -0.596189    -0.685020     0.016295
C     -0.316004     0.780224    -0.118983
C      0.816355    -0.180193     0.083193
H     -1.081898    -1.014971     0.928761
H     -0.884870    -1.246496    -0.865126
H     -0.593645     1.414505     0.713946
H     -0.431416     1.245848    -1.091391
H      1.464363    -0.375249    -0.762982
H      1.336387    -0.187197     1.033678
9
Iteration 12, Energy=-117.0671602668, |grad|=0.007234
C     -0.595918    -0.685899     0.016706
C     -0.317389     0.780989    -0.119585
C      0.815187    -0.180082     0.083209
H     -1.078558    -1.016316     0.928679
H     -0.884690    -1.244223    -0.864914
H     -0.593562     1.414509     0.713228
H     -0.429700     1.245880    -1.091023
H      1.462942    -0.376645    -0.762470
H      1.334771    -0.186763     1.033563
9
Iteration 13, Energy=-117.0672049178, |grad|=0.007431
C     -0.595026    -0.686284     0.016773
C     -0.318850     0.781174    -0.120447
C      0.814651    -0.179746     0.082985
H     -1.071467    -1.019759     0.929216
H     -0.886608    -1.239964    -0.865619
H     -0.592856     1.415860     0.712228
H     -0.428144     1.244925    -1.090854
H      1.461421    -0.378757    -0.761463
H      1.329963    -0.185997     1.034576
9
Iteration 14, Energy=-117.0672575717, |grad|=0.007815
C     -0.594190    -0.686845     0.016267
C     -0.318954     0.781891    -0.119851
C      0.814734    -0.179723     0.082255
H     -1.060929    -1.025191     0.930128
H     -0.892707    -1.234070    -0.867622
H     -0.590349     1.419128     0.710587
H     -0.429608     1.241798    -1.092112
H      1.463507    -0.380163    -0.760719
H      1.321581    -0.185375     1.038460
9
Iteration 15, Energy=-117.0672742812, |grad|=0.007962
C     -0.593962    -0.686279     0.014575
C     -0.318290     0.781820    -0.120603
C      0.815324    -0.180042     0.081577
H     -1.056470    -1.029222     0.932084
H     -0.895749    -1.231352    -0.868564
H     -0.589662     1.422167     0.710640
H     -0.430580     1.240265    -1.092710
H      1.464756    -0.380750    -0.759981
H      1.317717    -0.185157     1.040376
9
Iteration 16, Energy=-117.0672905822, |grad|=0.002530
C     -0.594048    -0.685822     0.014827
C     -0.317221     0.782176    -0.119115
C      0.816280    -0.180086     0.081111
H     -1.052263    -1.032172     0.932290
H     -0.899962    -1.229657    -0.870260
H     -0.588112     1.424553     0.709530
H     -0.432970     1.238312    -1.093865
H      1.467626    -0.380593    -0.759823
H      1.313754    -0.185262     1.042698
9
Iteration 17, Energy=-117.0672930430, |grad|=0.001538
C     -0.594321    -0.685762     0.014583
C     -0.316751     0.782210    -0.118543
C      0.816267    -0.179998     0.081056
H     -1.052701    -1.032644     0.932120
H     -0.900378    -1.229885    -0.870032
H     -0.587950     1.425239     0.709178
H     -0.433695     1.238122    -1.093960
H      1.468591    -0.380278    -0.759817
H      1.314022    -0.185553     1.042809
9
Iteration 18, Energy=-117.0672944932, |grad|=0.001452
C     -0.594548    -0.685550     0.014662
C     -0.316521     0.782311    -0.118326
C      0.816427    -0.179983     0.081034
H     -1.053377    -1.033208     0.931907
H     -0.900582    -1.230287    -0.869884
H     -0.587929     1.426024     0.708863
H     -0.434188     1.238034    -1.093826
H      1.469270    -0.379984    -0.759647
H      1.314532    -0.185907     1.042611
9
Iteration 19, Energy=-117.0672961658, |grad|=0.001736
C     -0.594513    -0.685446     0.014920
C     -0.316871     0.782378    -0.117978
C      0.816203    -0.179883     0.081014
H     -1.053569    -1.034906     0.931484
H     -0.900636    -1.230079    -0.869468
H     -0.587935     1.427784     0.707985
H     -0.434242     1.238098    -1.093631
H      1.469488    -0.380033    -0.759057
H      1.315160    -0.186464     1.042126
9
Iteration 20, Energy=-117.0672966475, |grad|=0.000802
C     -0.594713    -0.685575     0.015105
C     -0.316925     0.782570    -0.118097
C      0.816271    -0.179842     0.081233
H     -1.053543    -1.035545     0.931394
H     -0.900845    -1.229885    -0.869512
H     -0.587761     1.428516     0.707770
H     -0.434504     1.237831    -1.093597
H      1.469869    -0.379863    -0.758953
H      1.315235    -0.186757     1.042050
9
Iteration 21, Energy=-117.0672968507, |grad|=0.000344
C     -0.594635    -0.685609     0.015230
C     -0.317130     0.782633    -0.118109
C      0.816189    -0.179856     0.081165
H     -1.053325    -1.035923     0.931379
H     -0.900822    -1.229626    -0.869544
H     -0.587717     1.428813     0.707603
H     -0.434380     1.237766    -1.093593
H      1.469673    -0.379918    -0.758801
H      1.315231    -0.186829     1.042062
9
Iteration 22, Energy=-117.0672969237, |grad|=0.000333
C     -0.594590    -0.685630     0.015284
C     -0.317226     0.782640    -0.118105
C      0.816127    -0.179863     0.081225
H     -1.053227    -1.036055     0.931407
H     -0.900736    -1.229443    -0.869603
H     -0.587679     1.428899     0.707546
H     -0.434294     1.237677    -1.093638
H      1.469477    -0.379921    -0.758793
H      1.315233    -0.186855     1.042070
9
Iteration 23, Energy=-117.0672970312, |grad|=0.000671
C     -0.594682    -0.685695     0.015444
C     -0.317229     0.782622    -0.118040
C      0.816096    -0.179856     0.081298
H     -1.053267    -1.036272     0.931430
H     -0.900452    -1.229073    -0.869794
H     -0.587577     1.429168     0.707480
H     -0.434251     1.237262    -1.093786
H      1.469020    -0.379728    -0.758861
H      1.315427    -0.186977     1.042221
9
Iteration 24, Energy=-117.0672971173, |grad|=0.000215
C     -0.594627    -0.685619     0.015486
C     -0.317239     0.782627    -0.117959
C      0.816049    -0.179866     0.081480
H     -1.053408    -1.036358     0.931461
H     -0.900301    -1.228954    -0.869898
H     -0.587526     1.429265     0.707419
H     -0.434245     1.237017    -1.093829
H      1.468837    -0.379621    -0.758977
H      1.315544    -0.187041     1.042211
9
Iteration 25, Energy=-117.0672971358, |grad|=0.000106
C     -0.594656    -0.685604     0.015471
C     -0.317178     0.782618    -0.117904
C      0.816092    -0.179863     0.081501
H     -1.053503    -1.036331     0.931438
H     -0.900284    -1.228970    -0.869895
H     -0.587526     1.429286     0.707425
H     -0.434294     1.236935    -1.093833
H      1.468856    -0.379570    -0.759024
H      1.315578    -0.187052     1.042214
